LAMMPS (24 Dec 2020)
OMP_NUM_THREADS environment is not set. Defaulting to 1 thread. (src/lammps/src/comm.cpp:94)
  using 1 OpenMP thread(s) per MPI task
# created by fftool

units real
boundary p p p

atom_style full
bond_style harmonic
angle_style harmonic
special_bonds lj/coul 0.0 0.0 0.5

read_data data.1.lmp
Reading data file ...
  orthogonal box = (-13.443762 -13.443762 -13.443762) to (13.443762 13.443762 13.443762)
  2 by 2 by 3 MPI processor grid
  reading atoms ...
  1089 atoms
  scanning bonds ...
  1 = max bonds/atom
  scanning angles ...
  28 = max angles/atom
  reading bonds ...
  728 bonds
  reading angles ...
  388 angles
Finding 1-2 1-3 1-4 neighbors ...
  special bond factors lj:    0        0        0.5     
  special bond factors coul:  0        0        0.5     
     8 = max # of 1-2 neighbors
     7 = max # of 1-3 neighbors
     7 = max # of 1-4 neighbors
     8 = max # of special neighbors
  special bonds CPU = 0.001 seconds
  read_data CPU = 0.015 seconds
# read_restart restart.*.lmp
# reset_timestep 0

pair_style hybrid lj/cut/coul/long 10.0 10.0 lj/cut/coul/long/soft 1 0.5 10.0 10.0 10.0
pair_modify tail yes
kspace_style pppm 1.0e-4

pair_coeff    1    1  lj/cut/coul/long    0.0660   3.5000  # CF-C CF-C
pair_coeff    1    2  lj/cut/coul/long    0.0445   2.9580  # CF-C HD-
pair_coeff    1    3  lj/cut/coul/long    0.0591   3.2133  # CF-C F-D
pair_coeff    1    4  lj/cut/coul/long    0.0000   1.8708  # CF-C Hw
pair_coeff    1    5  lj/cut/coul/long    0.1013   3.3286  # CF-C Ow
pair_coeff    2    2  lj/cut/coul/long    0.0300   2.5000  # HD- HD-
pair_coeff    2    3  lj/cut/coul/long    0.0399   2.7157  # HD- F-D
pair_coeff    2    4  lj/cut/coul/long/soft    0.0000   1.5811  0.0  # HD- Hw
pair_coeff    2    5  lj/cut/coul/long/soft    0.0683   2.8131  0.0  # HD- Ow
pair_coeff    3    3  lj/cut/coul/long    0.0530   2.9500  # F-D F-D
pair_coeff    3    4  lj/cut/coul/long/soft    0.0000   1.7176  1.0  # F-D Hw
pair_coeff    3    5  lj/cut/coul/long/soft    0.0908   3.0559  1.0  # F-D Ow
pair_coeff    4    4  lj/cut/coul/long    0.0000   1.0000  # Hw Hw
pair_coeff    4    5  lj/cut/coul/long    0.0000   1.7792  # Hw Ow
pair_coeff    5    5  lj/cut/coul/long    0.1554   3.1655  # Ow Ow

variable TK equal 300.0
variable PBAR equal 1.0

neighbor 2.0 bin

timestep 1.0

velocity all create ${TK} 12345
velocity all create 300 12345

fix SHAKE all shake 0.0001 20 0 b 3 a 4
       0 = # of size 2 clusters
       0 = # of size 3 clusters
       0 = # of size 4 clusters
     360 = # of frozen angles
  find clusters CPU = 0.001 seconds

fix NPT all npt temp ${TK} ${TK} 100 iso ${PBAR} ${PBAR} 500
fix NPT all npt temp 300 ${TK} 100 iso ${PBAR} ${PBAR} 500
fix NPT all npt temp 300 300 100 iso ${PBAR} ${PBAR} 500
fix NPT all npt temp 300 300 100 iso 1 ${PBAR} 500
fix NPT all npt temp 300 300 100 iso 1 1 500

thermo_style custom step etotal ke pe evdwl ecoul elong temp press density
thermo 1000

run 200000
PPPM initialization ...
  using 12-bit tables for long-range coulomb (src/lammps/src/kspace.cpp:339)
  G vector (1/distance) = 0.27021277
  grid = 15 15 15
  stencil order = 5
  estimated absolute RMS force accuracy = 0.016919794
  estimated relative force accuracy = 5.0953457e-05
  using double precision FFTW3
  3d grid and FFT values/proc = 2352 450
Neighbor list info ...
  update every 1 steps, delay 10 steps, check yes
  max neighbors/atom: 2000, page size: 100000
  master list distance cutoff = 12
  ghost atom cutoff = 12
  binsize = 6, bins = 5 5 5
  3 neighbor lists, perpetual/occasional/extra = 3 0 0
  (1) pair lj/cut/coul/long, perpetual, skip from (3)
      attributes: half, newton on
      pair build: skip
      stencil: none
      bin: none
  (2) pair lj/cut/coul/long/soft, perpetual, skip from (3)
      attributes: half, newton on
      pair build: skip
      stencil: none
      bin: none
  (3) neighbor class addition, perpetual
      attributes: half, newton on
      pair build: half/bin/newton
      stencil: half/bin/3d/newton
      bin: standard
Per MPI rank memory allocation (min/avg/max) = 16.37 | 16.38 | 16.39 Mbytes
Step TotEng KinEng PotEng E_vdwl E_coul E_long Temp Press Density 
       0    796.45148     972.9364   -176.48492   -201.60386    19459.424   -19434.493    448.35165    1111.1116   0.56189244 
    1000    -3137.174    617.28966   -3754.4636    775.70717    15120.529   -19651.539    284.46138    234.96113    0.8036709 
    2000   -3276.4234    641.32256   -3917.7459    751.03162    14987.012   -19657.347    295.53631    74.246561   0.95940486 
    3000   -3344.7647    655.67451   -4000.4393    722.61082    14934.713   -19658.889    302.15002   -668.98748   0.97525111 
    4000   -3329.3372    669.38236   -3998.7196    766.90691    14892.648   -19659.221    308.46691    68.476393   0.98537187 
    5000   -3284.8346    666.24224   -3951.0768    733.71768     14973.11   -19659.051    307.01987   -210.71817    0.9857541 
    6000   -3332.7706    677.96139    -4010.732    776.73605    14869.568   -19658.321    312.42032   -28.984996    0.9761603 
    7000   -3385.9008    636.92323    -4022.824    822.09215    14809.969   -19655.868    293.50899     1315.174    1.0045463 
    8000   -3432.7582    652.13946   -4084.8977    792.90184     14784.77   -19663.308    300.52098    171.74504    1.0083786 
    9000   -3372.9394    642.79844   -4015.7378     763.7926    14877.365   -19657.892    296.21642    11.438126   0.99149436 
   10000     -3360.95    640.53103    -4001.481    743.68857    14914.633   -19660.894    295.17155   -528.65739   0.98337356 
   11000   -3374.6046    640.08549   -4014.6901    771.61231    14872.599   -19660.053    294.96623    564.27238    1.0181638 
   12000   -3311.3632    660.50157   -3971.8648    731.94432     14956.66   -19661.422    304.37444    313.33466    1.0210757 
   13000   -3381.3113    630.21256   -4011.5238    777.09053    14871.001   -19660.806    290.41656    459.90117    1.0155071 
   14000   -3387.9258     655.6625   -4043.5883    787.87261    14826.636   -19660.279    302.14448    426.93604    1.0023424 
   15000   -3361.1521     639.7612   -4000.9133    758.28261    14898.477   -19660.825    294.81679    521.84404    1.0247838 
   16000   -3389.8388    648.73303   -4038.5718    784.89421    14837.725   -19663.587    298.95122    412.49791    1.0047224 
   17000   -3285.5184    682.68662    -3968.205    741.24607    14949.552   -19660.579    314.59782   -63.901957    0.9997234 
   18000   -3365.6832    637.27623   -4002.9594    791.30655     14863.23   -19659.828    293.67166     538.9356   0.99861148 
   19000   -3366.8362    657.17381     -4024.01    694.04208    14939.215   -19658.372    302.84093   -1442.5502   0.98450314 
   20000   -3308.9271    649.27421   -3958.2013    775.93001    14922.481   -19659.267    299.20061    421.60633   0.97783819 
   21000   -3302.9713    641.44437   -3944.4157    731.65794    14982.087   -19659.037    295.59244    251.20854    1.0159042 
   22000   -3346.4921    641.46103   -3987.9531    753.77802    14916.096   -19660.744    295.60011    195.02526   0.99654075 
   23000   -3422.1086    620.26433   -4042.3729    719.41672     14895.98    -19661.32    285.83218   -1036.0805   0.99481974 
   24000   -3396.7679    637.73877   -4034.5067    745.48672     14877.62    -19660.48    293.88481   -809.38908   0.99385275 
   25000   -3378.7951     650.6991   -4029.4942    729.11489    14897.401   -19659.346    299.85723   -532.89655    1.0035854 
   26000   -3351.6229    652.65669   -4004.2796    754.53302      14898.1    -19660.62    300.75933    157.46894    1.0160449 
   27000   -3400.3587    650.92745   -4051.2861    711.19845    14895.279   -19659.918    299.96246    -922.0713    1.0211154 
   28000   -3356.5518    635.11283   -3991.6647    702.75571    14964.179   -19660.204    292.67471   -973.07424    1.0015755 
   29000    -3307.582    666.28725   -3973.8692    731.92317    14949.657    -19660.65    307.04061    -863.1943   0.97296234 
   30000   -3368.8316    643.31549   -4012.1471    802.01738    14843.665   -19661.651    296.45469    957.26649    1.0025427 
   31000    -3355.936    671.05142   -4026.9874    694.84192    14934.614   -19660.355    309.23605   -1301.8085    1.0000074 
   32000   -3345.4858    643.00118    -3988.487    778.89782    14889.278   -19660.588    296.30985    305.63786   0.99001903 
   33000   -3419.9279    632.32372   -4052.2516    756.57014    14848.636    -19660.89    291.38943   -76.447605    1.0039596 
   34000   -3420.1024    623.14171   -4043.2441    751.20343    14862.222   -19660.979    287.15815     -148.789    1.0289613 
   35000   -3353.8647    632.01734    -3985.882    780.36142    14889.507    -19659.01    291.24824    678.64872    1.0047406 
   36000   -3370.0618    643.51208   -4013.5739    712.54896    14932.507   -19661.648    296.54529   -411.21947    1.0292754 
   37000   -3318.6433    671.86768    -3990.511    760.44583    14905.105   -19658.819     309.6122    196.83869    1.0081241 
   38000   -3439.7997    617.00503   -4056.8047    773.64719    14825.726   -19658.711    284.33022     105.3722    1.0108832 
   39000   -3386.6339    619.69162   -4006.3255      735.039    14915.866   -19659.301    285.56827   -446.75015   0.99805009 
   40000   -3338.6751    635.35829   -3974.0334    751.24796    14932.847   -19661.768    292.78783   -121.74161   0.99930036 
   41000   -3392.8122     614.8572   -4007.6694    782.56019    14864.231   -19659.035    283.34045    109.96354   0.99369166 
   42000   -3308.2678    662.12443   -3970.3922    758.45574    14929.768   -19660.036    305.12229    713.21311    1.0098798 
   43000   -3355.3102    663.85047   -4019.1607     723.0514    14914.088   -19660.209    305.91769   -556.96188    1.0063791 
   44000   -3356.5852     635.2663   -3991.8515    754.13718    14908.356   -19659.548    292.74544    30.252306    1.0038122 
   45000   -3426.3463    653.50487   -4079.8511    790.29635    14786.089   -19660.139    301.15019    148.55058   0.99871511 
   46000   -3358.9948     662.1605   -4021.1553    822.98948    14814.483   -19662.356    305.13891    1349.0304    1.0027956 
   47000    -3378.361    640.67429   -4019.0353    730.44178    14904.995   -19657.818    295.23757   -770.15494   0.99532297 
   48000   -3363.4208    644.52315   -4007.9439    776.53018     14865.65   -19654.803    297.01121    305.34819    1.0007566 
   49000   -3344.4615    657.51347    -4001.975    709.17096    14942.387   -19658.102    302.99745    -919.6298   0.97138872 
   50000   -3306.6349    669.53942   -3976.1743    752.62992    14925.712   -19656.494    308.53929    104.49198    0.9898985 
   51000   -3392.0071    639.56133   -4031.5684    745.50903    14882.159   -19662.125    294.72469   -265.30701     1.020723 
   52000   -3373.4189    669.84157   -4043.2605    725.93743    14888.295   -19661.363    308.67852   -917.92603   0.99292576 
   53000   -3377.7021    642.32073   -4020.0228    737.30969    14901.838    -19661.96    295.99628   -263.96717     1.009553 
   54000   -3412.5078    617.74315   -4030.2509    745.34154    14882.297   -19660.095    284.67036   -446.20999    1.0145164 
   55000   -3352.7615    622.65814   -3975.4196    717.04474    14965.397   -19659.572     286.9353   -179.10108    1.0100285 
   56000   -3343.8978    643.21129    -3987.109    730.66799    14938.507   -19661.471    296.40667   -145.08058    1.0077369 
   57000    -3295.437     708.4704   -4003.9074     761.2564    14889.628   -19656.979    326.47958   -294.25895    0.9772106 
   58000   -3394.2471    655.27691    -4049.524    704.24611    14905.439   -19660.595    301.96679   -917.06631    1.0169303 
   59000   -3302.8206    672.33898   -3975.1595    757.72324     14922.73   -19658.448    309.82939    854.45339    1.0328067 
   60000   -3341.0939     662.1191    -4003.213     766.3794    14890.225   -19662.226    305.11983   -136.18004   0.99494137 
   61000   -3323.4989      656.215   -3979.7139    735.32243     14938.56   -19656.229    302.39909   -285.59711   0.99781434 
   62000   -3393.8797    637.22448   -4031.1042    788.64265    14836.228   -19657.771    293.64781    410.69713    1.0015855 
   63000   -3368.1252    623.65859   -3991.7838    755.12112    14908.671   -19657.575    287.39634   -167.31766   0.98720622 
   64000   -3346.6346    663.67839    -4010.313    749.07041    14895.147   -19657.919    305.83839   -26.482046   0.99502152 
   65000   -3308.8676    652.86466   -3961.7322    749.90861    14947.123   -19660.254    300.85517    136.75536   0.98513082 
   66000   -3298.4838    654.23713   -3952.7209    736.72641    14965.464   -19659.748    301.48763   -130.65309    0.9931552 
   67000   -3333.1479    674.93693   -4008.0849    702.12741    14947.279   -19661.338    311.02659   -1078.8851   0.98838329 
   68000   -3278.0242    668.63576     -3946.66    688.83538    15019.323    -19658.79    308.12286    -831.5252    0.9857515 
   69000   -3316.8045    648.51037   -3965.3149    701.22978    14992.019   -19661.247    298.84861   -1072.5124   0.97445521 
   70000   -3349.0176    670.22471   -4019.2424    750.02725     14886.77   -19658.826    308.85508   -16.730915   0.99830305 
   71000   -3371.1933     639.5987    -4010.792    775.22378     14868.66   -19658.897    294.74191    694.31109    1.0189707 
   72000   -3355.7001    641.65852   -3997.3586    739.74012    14917.846   -19658.191    295.69112   -268.62285    1.0154814 
   73000    -3376.499    633.34827   -4009.8473    728.45963    14919.091   -19660.755    291.86157   -1056.8005   0.98899494 
   74000    -3386.081    644.38668   -4030.4677    749.61041    14877.149   -19661.706    296.94832   -191.36624   0.99857607 
   75000   -3358.8629    640.51413    -3999.377    789.26274    14864.461   -19658.184    295.16376    505.51476     1.008853 
   76000   -3388.8683    654.12881   -4042.9971    804.39569    14804.781   -19657.153    301.43772    1297.3519    1.0373216 
   77000   -3357.1653    669.61102   -4026.7764     759.9809    14870.965   -19662.538    308.57228     317.9752    1.0180531 
   78000   -3381.1822    630.48763   -4011.6698    733.10358    14913.112   -19659.789    290.54331   -684.10012   0.99462945 
   79000   -3326.1204    663.99093   -3990.1113    732.60198    14935.007   -19660.353    305.98241    -135.8725    0.9945486 
   80000   -3379.6217    656.04765   -4035.6693    751.71458    14869.506   -19662.118    302.32196    56.565926     1.024412 
   81000   -3357.5334    641.77888   -3999.3123    739.88923    14916.649   -19661.458    295.74659   -653.71401    1.0009198 
   82000   -3334.4311    657.29638   -3991.7275    747.59119    14918.339   -19661.799    302.89741    251.73339    1.0047823 
   83000   -3417.3168    628.27286   -4045.5897    719.93427    14889.812   -19657.317     289.5227   -996.00116   0.99798083 
   84000   -3394.3696    649.15959   -4043.5291    763.98012    14847.394   -19657.368    299.14779   -454.13625   0.98529844 
   85000   -3324.7667     690.5945   -4015.3612    793.73448    14844.258   -19657.275    318.24195     976.7504    1.0107195 
   86000   -3381.9285    663.55685   -4045.4854    796.69708    14815.479   -19659.947    305.78238    1000.4997    1.0132057 
   87000   -3378.8578    675.88866   -4054.7465    755.04157    14847.331   -19660.783    311.46516   -516.90953    1.0023501 
   88000   -3346.2594    664.68172   -4010.9411    797.70685    14850.756   -19662.047    306.30075    661.14928   0.99465633 
   89000   -3324.8167    658.82016   -3983.6368    682.94666    14992.076   -19660.096     303.5996   -941.73884     1.008544 
   90000    -3323.619    653.91771   -3977.5367    718.47403    14963.289   -19661.073    301.34044   -784.33167   0.97956151 
   91000   -3360.1679    635.52364   -3995.6916    762.08329    14896.628   -19658.028    292.86403    -203.5482   0.98030647 
   92000    -3333.994    666.22741   -4000.2214    780.85767    14874.475   -19658.425    307.01304    267.99257   0.97467696 
   93000   -3330.4971    651.12942   -3981.6265    733.87532    14940.996     -19659.1    300.05553   -526.24523   0.98893131 
   94000   -3354.5817    664.39741   -4018.9791    754.99855    14882.393   -19659.307    306.16973   -780.32893   0.96077912 
   95000   -3312.1413    655.16877   -3967.3101    716.81709    14972.147   -19659.775    301.91696   -492.99968    1.0003736 
   96000   -3334.6146    665.03826   -3999.6528     782.1841    14873.628   -19657.366    306.46505    866.90593    1.0094511 
   97000   -3360.8095    640.85175   -4001.6612    762.98405    14892.357    -19659.69    295.31934    170.74108    1.0117919 
   98000   -3317.8301     656.1979    -3974.028    784.12965    14901.217   -19661.303     302.3912    502.89547   0.98625233 
   99000   -3365.3336    620.04757   -3985.3812    725.83981    14947.068   -19660.647    285.73229    -599.5875   0.98754724 
  100000   -3424.2223    625.13175    -4049.354    784.54333    14823.791    -19659.33     288.0752     236.8686    1.0178446 
  101000   -3384.9158    635.04518    -4019.961    718.59682    14919.391   -19660.143    292.64354   -585.17723    1.0203038 
  102000     -3389.21    642.27452   -4031.4845    756.97025    14870.747     -19661.6    295.97499   -71.057469     1.003558 
  103000   -3382.5023    653.83898   -4036.3412    805.70766    14815.581   -19661.431    301.30416    1269.1149    1.0321631 
  104000   -3394.9283    648.60109   -4043.5294    753.89542    14861.136   -19661.466    298.89042    304.11019    1.0292524 
  105000    -3359.698    662.48213   -4022.1802    728.98523    14905.232   -19660.332    305.28712   -465.30457    1.0161266 
  106000   -3354.9197    647.65812   -4002.5778    805.62025    14847.558   -19658.489    298.45588      1173.77    1.0026531 
  107000   -3320.6917      684.932   -4005.6237    725.70763    14926.639   -19660.362    315.63254   -482.72539   0.99773376 
  108000   -3392.2613    651.11147   -4043.3728    805.84675    14805.912   -19657.462    300.04726     809.6814    1.0090936 
  109000   -3344.4238    651.61485   -3996.0386    739.02643    14919.441   -19658.097    300.27923   -436.46078   0.99540243 
  110000   -3347.1202    649.42072   -3996.5409    770.11624     14887.39   -19658.593    299.26812     330.9828   0.99991918 
  111000   -3353.7911    667.73954   -4021.5306    672.89881    14963.638   -19661.828    307.70986   -1882.6261   0.98797331 
  112000   -3350.3916    647.27266   -3997.6642    756.63903    14901.965   -19659.112    298.27825   -238.23736   0.98791398 
  113000   -3309.2625    650.72133   -3959.9838    710.21281     14984.97   -19658.662    299.86747    -158.9845    1.0074867 
  114000   -3384.6902    630.89701   -4015.5872     762.8435    14879.769   -19659.874    290.73197    111.63981     1.000779 
  115000   -3287.8822    694.22546   -3982.1077    716.31133    14956.653    -19657.98    319.91518   -1156.6803   0.96768463 
  116000    -3315.983    656.47561   -3972.4586    795.74337     14890.57   -19661.354    302.51918    753.65832   0.99129117 
  117000    -3348.667    625.25174   -3973.9187    790.55913    14892.915   -19661.033    288.13049    566.42984   0.98705817 
  118000   -3366.9224    635.82586   -4002.7482    755.38856    14899.869   -19662.229    293.00329   -198.51408    1.0009907 
  119000   -3305.0654    660.63677   -3965.7021    711.52258    14979.052   -19658.369    304.43674   -86.614123    1.0165993 
  120000   -3417.3375    622.00605   -4039.3435    727.77649    14893.102   -19663.165    286.63481   -293.14217    1.0251268 
  121000    -3357.918    674.81593   -4032.7339    727.11428    14898.167   -19660.766    310.97082   -633.79575    1.0079808 
  122000   -3360.3317    665.07838   -4025.4101    759.26263    14874.623   -19662.174    306.48354    151.45003    1.0213944 
  123000   -3412.0181    640.67875   -4052.6968    766.08001     14839.24   -19660.259    295.23962    205.95885    1.0205044 
  124000   -3278.8311    635.89219   -3914.7233    671.15345    15070.182   -19658.449    293.03386   -1183.6781   0.98797871 
  125000   -3386.4029    640.18891   -4026.5918    784.78353    14843.728   -19659.099    295.01389    325.74695    1.0026185 
  126000   -3433.9016    622.38584   -4056.2875    727.37366    14876.347   -19663.451    286.80982   -1038.9896   0.99778985 
  127000   -3349.3076     655.0774    -4004.385    763.37375     14883.51   -19656.035    301.87485    -218.4718   0.98529401 
  128000   -3339.0931    626.19766   -3965.2907    720.96067    14969.801   -19659.646     288.5664   -859.58403   0.97831242 
  129000   -3346.5322    680.51576    -4027.048    771.13094    14859.986   -19661.265    313.59744      324.004    1.0028283 
  130000   -3439.7255     635.6154   -4075.3409    805.01634    14776.315   -19661.649    292.90631   -115.49488   0.99844891 
  131000   -3307.7761    691.75317   -3999.5293    755.30916    14905.425   -19663.215     318.7759    81.880397    1.0031868 
  132000   -3388.2977    654.22524   -4042.5229    747.15553     14867.45    -19660.76    301.48216    190.52151    1.0254334 
  133000     -3384.94    654.35668   -4039.2967     748.8742    14870.882   -19661.092    301.54273   -541.01657    1.0071557 
  134000   -3407.6402    624.84343   -4032.4836    774.97903    14849.539   -19661.683    287.94234    133.81081    1.0071177 
  135000   -3359.6634    670.10754    -4029.771    756.31413    14870.242   -19659.474    308.80109    63.113655    1.0093123 
  136000    -3382.261    630.92636   -4013.1873    734.67421     14905.21   -19659.114    290.74549   -1083.8007   0.98719851 
  137000   -3365.9813    634.50886   -4000.4901    741.17998    14915.079   -19659.506    292.39639   -187.81356   0.99987926 
  138000   -3353.7085    646.75511   -4000.4636    815.12165    14837.948   -19657.096    298.03975    1649.4459    1.0237904 
  139000   -3380.2196     634.4666   -4014.6862    742.16735     14900.35   -19660.374    292.37692   -319.39752    1.0125335 
  140000   -3330.5989     657.0196   -3987.6185    752.66316    14914.623   -19659.716    302.76986   -318.68873   0.98117194 
  141000   -3367.4498    603.19547   -3970.6452     824.1362     14862.08   -19660.738    277.96646    1438.5379   0.98658599 
  142000   -3330.7577    668.74521   -3999.5029    664.85502    14989.466   -19657.795     308.1733   -1862.2996   0.98495754 
  143000   -3381.7701    608.32915   -3990.0993    723.50214    14945.969    -19662.92    280.33218   -633.19689    1.0014092 
  144000   -3410.3169    628.35826   -4038.6751    757.63746    14855.963   -19657.484    289.56205   -187.13502    1.0088411 
  145000   -3365.3473    647.06629   -4012.4136     742.0013    14903.442   -19661.697    298.18315   -421.16208   0.99408582 
  146000   -3376.8539    654.17852   -4031.0324    715.49185    14910.393   -19661.789    301.46063   -852.17172    1.0206474 
  147000   -3257.5396    700.88336    -3958.423    732.69568    14967.053   -19661.415     322.9833    307.93031    1.0028674 
  148000   -3370.6566    640.17598   -4010.8326    741.48808    14901.667    -19659.35    295.00793   -431.04255   0.99460872 
  149000   -3417.4353    636.74525   -4054.1806    762.29561    14838.793   -19659.835    293.42697    170.63908    1.0357165 
  150000   -3374.4532     645.7685   -4020.2217    740.60439    14897.529   -19661.726    297.58509   -284.00874    1.0080469 
  151000    -3342.683    650.39477   -3993.0778    741.32188    14921.249   -19659.531    299.71699    265.34275    1.0307513 
  152000   -3339.9678     666.9058   -4006.8736    781.55709    14865.062   -19658.412    307.32565    304.09161     0.999532 
  153000   -3392.5258    654.42152   -4046.9474     755.1475    14853.388   -19658.578    301.57261   -139.79905    1.0098517 
  154000   -3379.9628    643.77563   -4023.7385    810.93581    14822.067   -19661.222    296.66673    951.32837   0.99882612 
  155000    -3387.157     653.5319   -4040.6889    719.87271    14896.957   -19660.533    301.16265   -1187.5171   0.99050682 
  156000   -3337.9608    646.62242   -3984.5832     745.0894    14927.653   -19659.671     297.9786   -157.20261   0.99847283 
  157000   -3355.7815    643.98662   -3999.7681    814.39316    14841.752   -19660.628    296.76397    1175.8758   0.99591594 
  158000   -3278.6076    662.68104   -3941.2886    771.39393    14943.059   -19659.158    305.37879     646.7184   0.99937501 
  159000   -3322.9035     673.4448   -3996.3483    816.50684     14843.74   -19660.696    310.33897    1420.1814    1.0216189 
  160000   -3359.5945    662.50336   -4022.0979    753.49747    14881.129   -19662.166     305.2969    403.42443    1.0250673 
  161000   -3340.2143    660.52013   -4000.7344    833.29527    14821.175   -19658.452    304.38299    1690.2541    1.0145823 
  162000   -3315.1616    638.18042    -3953.342    733.51367    14969.511   -19659.934    294.08833   -11.410296    1.0148008 
  163000   -3414.8517    660.56527    -4075.417    784.94697    14796.249   -19660.745    304.40379    717.17786    1.0296659 
  164000   -3392.5227    635.49213   -4028.0149    744.10606    14885.663   -19659.894    292.84951   -484.79847    1.0092161 
  165000   -3370.5939    635.64081   -4006.2347    735.69635    14914.837   -19659.221    292.91802   -366.20675    1.0176318 
  166000   -3351.9259    662.73663   -4014.6625    754.47609    14887.005    -19659.53     305.4044    347.92099    1.0101698 
  167000   -3324.8585     682.5223   -4007.3808    741.55118    14906.258    -19658.32     314.5221   -312.59063     0.994102 
  168000   -3385.9671    608.49721   -3994.4643    799.73792    14864.419   -19661.057    280.40962    996.09172     1.017453 
  169000   -3363.1368    666.31755   -4029.4543    798.24615    14831.781   -19662.556    307.05458    1171.7075    1.0158424 
  170000   -3340.8253    654.42857   -3995.2538    695.60616    14966.164   -19660.825    301.57586   -1081.5065   0.99365107 
  171000   -3369.9132    647.91166   -4017.8249    779.49077    14860.846   -19663.261    298.57271     439.1861    1.0224981 
  172000   -3279.0991    675.98169   -3955.0807    808.81599    14890.264   -19657.617    311.50804    2078.4207    1.0214338 
  173000   -3346.3465    634.06962   -3980.4161    706.77967    14969.535   -19661.012    292.19398   -500.64414    1.0095511 
  174000   -3319.4978    675.05736   -3994.5551    752.95312    14909.169   -19659.612    311.08208   -164.78094   0.99105181 
  175000   -3419.6514    623.99952   -4043.6509    719.50252     14892.82   -19659.434    287.55345   -1023.3189    1.0021013 
  176000   -3365.6575    658.97556   -4024.6331    779.26542     14853.65   -19661.063    303.67121    452.22531    1.0169943 
  177000   -3376.2528    638.11848   -4014.3713    731.62896    14909.638   -19659.342    294.05979   -880.97848   0.99373891 
  178000   -3400.8487    673.42455   -4074.2732    832.06208    14749.718   -19659.167    310.32964    1337.4358    1.0166219 
  179000   -3316.1651    661.15445   -3977.3195    781.57106    14898.739   -19661.801     304.6753    989.22559   0.99713614 
  180000   -3363.0125    622.13259    -3985.145    735.01185    14936.549   -19660.757    286.69312   -724.92051   0.99852171 
  181000   -3419.7374    649.38245   -4069.1199    728.39068    14859.398   -19659.343    299.25049   -1000.9797     1.001436 
  182000   -3370.1782    639.49004   -4009.6683    740.02839    14907.731   -19660.171    294.69183   -233.58514    1.0045299 
  183000   -3390.4796    626.61079   -4017.0904    826.51423    14812.674   -19659.793    288.75678    1627.8211    1.0217672 
  184000   -3415.5959    649.88609    -4065.482    793.66482    14798.685   -19661.081    299.48258    417.93747    1.0033315 
  185000   -3397.5662    630.39485    -4027.961    768.92995    14859.523   -19659.862    290.50056     383.4633     1.020639 
  186000   -3418.3605    649.84969   -4068.2102    783.92147    14804.565   -19659.175     299.4658     72.04256    1.0115824 
  187000   -3432.4487    585.95407   -4018.4028     786.2218     14852.57   -19659.276    270.02122    336.11138    1.0021074 
  188000   -3373.1116    672.17332   -4045.2849    772.99626    14839.215    -19661.12    309.75305   -58.493651   0.98903714 
  189000    -3295.273     668.9156   -3964.1886    703.61731    14987.479   -19657.926    308.25182   -799.25148   0.98864366 
  190000   -3414.4996    625.65276   -4040.1524    783.95452    14836.123   -19662.015     288.3153    427.29632     1.016338 
  191000     -3347.84    630.45947   -3978.2995    734.98451    14943.479   -19659.113    290.53034   -484.20843   0.98702195 
  192000   -3377.5308     624.6704   -4002.2012    777.34284    14876.908   -19658.478     287.8626    393.02771   0.99136481 
  193000   -3337.0899    656.75025   -3993.8402    771.40143      14890.2   -19658.528    302.64574    284.94044   0.99909588 
  194000   -3373.4236    635.77963   -4009.2032    742.75456    14903.858   -19658.671    292.98199   -591.29578   0.98103585 
  195000   -3338.2396    634.71832   -3972.9579    718.30184    14965.507   -19659.862    292.49292    -971.9023   0.97301737 
  196000   -3384.8433    613.31046   -3998.1538    792.41129    14866.921   -19660.368    282.62768    849.20195     1.010842 
  197000    -3364.543    656.04681   -4020.5898    728.40423    14911.697   -19662.873    302.32158    -558.1508    1.0033262 
  198000   -3280.6737    667.84991   -3948.5237    721.09287    14984.947   -19657.751    307.76072   -372.17558    1.0083832 
  199000   -3353.5271    646.52939   -4000.0565    763.56646    14890.737   -19658.516    297.93573    90.341544    1.0047352 
  200000   -3429.7279    650.20138   -4079.9293    778.52437    14798.897   -19661.287    299.62787    450.35651    1.0265565 
Loop time of 593.502 on 12 procs for 200000 steps with 1089 atoms

Performance: 29.115 ns/day, 0.824 hours/ns, 336.983 timesteps/s
93.0% CPU use with 12 MPI tasks x 1 OpenMP threads

MPI task timing breakdown:
Section |  min time  |  avg time  |  max time  |%varavg| %total
---------------------------------------------------------------
Pair    | 250.43     | 272.64     | 290.68     |  84.1 | 45.94
Bond    | 0.17363    | 0.32522    | 0.78092    |  39.2 |  0.05
Kspace  | 131.23     | 148.53     | 171.54     | 115.0 | 25.03
Neigh   | 21.673     | 21.699     | 21.732     |   0.4 |  3.66
Comm    | 55.499     | 62.335     | 65.325     |  47.0 | 10.50
Output  | 0.011747   | 0.012142   | 0.015849   |   1.0 |  0.00
Modify  | 61.211     | 69.793     | 87.29      | 119.9 | 11.76
Other   |            | 18.17      |            |       |  3.06

Nlocal:        90.7500 ave          99 max          85 min
Histogram: 3 0 2 1 1 1 2 1 0 1
Nghost:        3840.92 ave        3901 max        3811 min
Histogram: 5 0 1 1 1 1 1 1 0 1
Neighs:        33120.1 ave       37893 max       30075 min
Histogram: 2 1 1 3 2 1 1 0 0 1

Total # of neighbors = 397441
Ave neighs/atom = 364.95960
Ave special neighs/atom = 2.0495868
Neighbor list builds = 8482
Dangerous builds = 4

reset_timestep 0

variable lambda equal ramp(1.0,0.0)
variable minusl equal 1.0-v_lambda
variable qC equal  0.48*v_lambda-0.24*(1.0-v_lambda)
variable qH equal  0.06*(1.0-v_lambda)
variable qF equal -0.12*v_lambda

fix ADAPT all adapt/fep 100000     pair lj/cut/coul/long/soft lambda 2 4*5 v_minusl     pair lj/cut/coul/long/soft lambda 3 4*5 v_lambda     atom charge 1 v_qC     atom charge 2 v_qH     atom charge 3 v_qF     after yes

thermo_style custom step etotal ke pe evdwl ecoul elong temp press density     v_lambda v_qC v_qH v_qF

variable dlambda equal -0.05
variable minusdl equal  0.05
variable dqC equal  (0.48+0.24)*v_dlambda
variable dqH equal -0.06*v_dlambda
variable dqF equal -0.12*v_dlambda

compute FEP all fep ${TK}     pair lj/cut/coul/long/soft lambda 2 4*5 v_minusdl     pair lj/cut/coul/long/soft lambda 3 4*5 v_dlambda     atom charge 1 v_dqC     atom charge 2 v_dqH     atom charge 3 v_dqF     volume yes
compute FEP all fep 300     pair lj/cut/coul/long/soft lambda 2 4*5 v_minusdl     pair lj/cut/coul/long/soft lambda 3 4*5 v_dlambda     atom charge 1 v_dqC     atom charge 2 v_dqH     atom charge 3 v_dqF     volume yes

fix FEP all ave/time 20 4000 100000 c_FEP[*] file fep10.fep

dump TRAJ all custom 20000 dump.lammpstrj id mol type element xu yu zu
dump_modify TRAJ element C H F H O

run 2000000
PPPM initialization ...
  using 12-bit tables for long-range coulomb (src/lammps/src/kspace.cpp:339)
  G vector (1/distance) = 0.26835398
  grid = 12 12 12
  stencil order = 5
  estimated absolute RMS force accuracy = 0.025279937
  estimated relative force accuracy = 7.6129779e-05
  using double precision FFTW3
  3d grid and FFT values/proc = 1859 144
FEP settings ...
  temperature = 300.000000
  tail no
  lj/cut/coul/long/soft lambda 2-2 4-5
  lj/cut/coul/long/soft lambda 3-3 4-5
  1-1 charge
  2-2 charge
  3-3 charge
Neighbor list info ...
  update every 1 steps, delay 10 steps, check yes
  max neighbors/atom: 2000, page size: 100000
  master list distance cutoff = 12
  ghost atom cutoff = 12
  binsize = 6, bins = 4 4 4
  3 neighbor lists, perpetual/occasional/extra = 3 0 0
  (1) pair lj/cut/coul/long, perpetual, skip from (3)
      attributes: half, newton on
      pair build: skip
      stencil: none
      bin: none
  (2) pair lj/cut/coul/long/soft, perpetual, skip from (3)
      attributes: half, newton on
      pair build: skip
      stencil: none
      bin: none
  (3) neighbor class addition, perpetual
      attributes: half, newton on
      pair build: half/bin/newton
      stencil: half/bin/3d/newton
      bin: standard
Per MPI rank memory allocation (min/avg/max) = 17.62 | 17.63 | 17.63 Mbytes
Step TotEng KinEng PotEng E_vdwl E_coul E_long Temp Press Density v_lambda v_qC v_qH v_qF 
       0   -3429.7922    650.20138   -4079.9936    778.52437    14663.799   -19526.253    299.62787    652.44739    1.0265565            1         0.48            0        -0.12 
    1000    -3316.147     658.1231   -3974.2701    736.85109    14807.902   -19523.733    303.27838   -374.05834   0.98874986       0.9995      0.47964        3e-05     -0.11994 
    2000   -3346.1753    662.04028   -4008.2156     772.1381     14740.56   -19523.952    305.08351    230.29372   0.99048821        0.999      0.47928        6e-05     -0.11988 
    3000   -3395.5137    623.68458   -4019.1983    758.32054     14742.14   -19523.896    287.40831    62.534607   0.99632008       0.9985      0.47892        9e-05     -0.11982 
    4000   -3407.0775    605.53996   -4012.6174    747.45276     14762.93   -19526.467    279.04685   -492.73002    1.0001818        0.998      0.47856      0.00012     -0.11976 
    5000   -3315.5869    667.24823   -3982.8351    724.51674    14810.461    -19522.26    307.48345    -534.4498   0.99131131       0.9975       0.4782      0.00015      -0.1197 
    6000    -3407.633    668.39348   -4076.0265    764.76222     14681.94   -19526.786    308.01121   -66.777361    1.0153356        0.997      0.47784      0.00018     -0.11964 
    7000   -3347.0654    655.01919   -4002.0846    762.70996    14755.155     -19525.1    301.84803     524.3365    1.0134287       0.9965      0.47748      0.00021     -0.11958 
    8000   -3388.4634    672.62935   -4061.0928    801.69089    14658.926   -19526.326     309.9632    941.71243    1.0157886        0.996      0.47712      0.00024     -0.11952 
    9000   -3349.0774    651.73515   -4000.8126    714.79969    14806.582   -19525.625    300.33467   -951.30645   0.99889458       0.9955      0.47676      0.00027     -0.11946 
   10000   -3344.2617    671.03066   -4015.2923     748.1027     14761.18    -19527.63    309.22649   -217.88653   0.99331505        0.995       0.4764       0.0003      -0.1194 
   11000   -3388.9249     630.6195   -4019.5444    781.24009    14720.119   -19525.396    290.60409    647.52766     1.018833       0.9945      0.47604      0.00033     -0.11934 
   12000   -3316.6725    674.94198   -3991.6145    740.21313    14790.934    -19526.62    311.02891    247.56906    1.0229001        0.994      0.47568      0.00036     -0.11928 
   13000   -3331.0683    694.54026   -4025.6086    743.59379    14754.047   -19528.066    320.06025   -269.57483    1.0012756       0.9935      0.47532      0.00039     -0.11922 
   14000   -3372.8192    654.88878    -4027.708    879.85374    14613.357   -19525.419    301.78793    2565.0727    1.0214491        0.993      0.47496      0.00042     -0.11916 
   15000   -3394.0234    632.76675   -4026.7901    741.28147    14754.354   -19525.677    291.59359   -121.18489    1.0106721       0.9925       0.4746      0.00045      -0.1191 
   16000   -3380.2598    621.41848   -4001.6783    764.34931    14754.516   -19524.847    286.36404     283.5008    1.0142803        0.992      0.47424      0.00048     -0.11904 
   17000   -3343.1928    643.01398   -3986.2067    766.74629    14769.036   -19525.243    296.31575    574.08533    1.0086823       0.9915      0.47388      0.00051     -0.11898 
   18000   -3283.0501    695.20455   -3978.2547    719.06398    14823.548   -19523.402    320.36638    -237.4498    1.0061319        0.991      0.47352      0.00054     -0.11892 
   19000   -3356.1499    648.68202   -4004.8319    742.16729    14771.989   -19521.159    298.92771   -99.795964    1.0149363       0.9905      0.47316      0.00057     -0.11886 
   20000   -3368.7851    671.11654   -4039.9016    769.60969    14710.973   -19524.276    309.26606    416.47459    1.0162699         0.99       0.4728       0.0006      -0.1188 
   21000   -3299.5729     658.1902   -3957.7631     782.2327    14782.407    -19525.62     303.3093    1071.3053    1.0035771       0.9895      0.47244      0.00063     -0.11874 
   22000    -3379.704    655.41174   -4035.1157    773.00058    14715.678    -19526.74    302.02892    -180.7041   0.97379694        0.989      0.47208      0.00066     -0.11868 
   23000   -3332.7458    649.99945   -3982.7453    764.36913    14773.902   -19525.066    299.53482    221.18832   0.98295716       0.9885      0.47172      0.00069     -0.11862 
   24000   -3332.7728    665.48827   -3998.2611    727.13455    14797.435   -19525.393    306.67242   -665.05711   0.99247118        0.988      0.47136      0.00072     -0.11856 
   25000   -3331.4489     639.2815   -3970.7304    747.05129    14802.546   -19524.678    294.59573    74.514679   0.97949206       0.9875        0.471      0.00075      -0.1185 
   26000   -3315.8965     676.6702   -3992.5667    736.52423    14793.158   -19526.328    311.82531   -268.41046    1.0064695        0.987      0.47064      0.00078     -0.11844 
   27000   -3375.5744    637.93345   -4013.5078    808.70132    14697.848   -19526.133    293.97452    1264.2137    1.0237858       0.9865      0.47028      0.00081     -0.11838 
   28000   -3330.9842    652.95273   -3983.9369    745.64061    14792.918   -19527.075    300.89576    147.37817    1.0073478        0.986      0.46992      0.00084     -0.11832 
   29000   -3341.6179    679.50986   -4021.1277    748.47673    14747.938   -19522.419    313.13389   -408.78642    1.0010407       0.9855      0.46956      0.00087     -0.11826 
   30000   -3425.7144    651.67542   -4077.3898     767.2653    14673.532   -19523.388    300.30714   -582.28209   0.99497661        0.985       0.4692       0.0009      -0.1182 
   31000   -3375.7436    625.36405   -4001.1077    813.90981    14704.239   -19525.488    288.18225    947.74344   0.99482559       0.9845      0.46884      0.00093     -0.11814 
   32000   -3336.3186    650.19288   -3986.5115    716.52359     14816.89   -19524.033    299.62395   -800.81289   0.99410777        0.984      0.46848      0.00096     -0.11808 
   33000   -3342.8213    651.41861   -3994.2399    734.01766    14793.177    -19523.14     300.1888     -520.651   0.98979761       0.9835      0.46812      0.00099     -0.11802 
   34000   -3330.6458    663.40144   -3994.0473    804.34206    14720.599   -19522.914    305.71076    1454.6935    1.0091323        0.983      0.46776      0.00102     -0.11796 
   35000   -3363.7457    631.47365   -3995.2193    740.98515    14785.072   -19525.693     290.9977    -442.7447   0.98836742       0.9825       0.4674      0.00105      -0.1179 
   36000   -3333.7323    653.45224   -3987.1845    747.00728    14788.459    -19526.52    301.12594      47.7627     1.006325        0.982      0.46704      0.00108     -0.11784 
   37000   -3351.8495    666.97891   -4018.8284    741.08423     14759.72   -19525.933    307.35934     31.73107    1.0087614       0.9815      0.46668      0.00111     -0.11778 
   38000   -3343.8362    629.03765   -3972.8738     772.3556    14776.905   -19527.508    289.87513    510.06236   0.99225864        0.981      0.46632      0.00114     -0.11772 
   39000   -3305.2908     659.2338   -3964.5246    767.43662    14786.512   -19524.224    303.79022    534.33232   0.99994426       0.9805      0.46596      0.00117     -0.11766 
   40000   -3325.7031    663.11915   -3988.8223    755.24634    14775.906   -19525.304    305.58068    165.20041    1.0079548         0.98       0.4656       0.0012      -0.1176 
   41000   -3291.4732    684.67697   -3976.1502    727.97422    14814.226   -19524.298    315.51502    38.990536   0.99616134       0.9795      0.46524      0.00123     -0.11754 
   42000   -3342.6418    652.58623    -3995.228    711.16249    14813.521   -19526.161    300.72686   -826.06443   0.99099131        0.979      0.46488      0.00126     -0.11748 
   43000   -3313.3322    672.59457   -3985.9267    767.16527    14766.742   -19525.403    309.94717    383.68079    1.0085393       0.9785      0.46452      0.00129     -0.11742 
   44000   -3428.0372    608.73228   -4036.7695    799.79542    14684.949   -19526.926    280.51795    831.71927    1.0158309        0.978      0.46416      0.00132     -0.11736 
   45000   -3328.4628    617.08608   -3945.5489    706.65853    14866.473   -19523.234    284.36757   -588.77586   0.99537853       0.9775       0.4638      0.00135      -0.1173 
   46000      -3320.1    661.62304    -3981.723    722.38962    14816.748   -19524.586    304.89124   -630.53844    1.0044489        0.977      0.46344      0.00138     -0.11724 
   47000   -3362.2712    635.99723   -3998.2685    776.41216    14745.944   -19525.879    293.08227    485.97845    1.0008195       0.9765      0.46308      0.00141     -0.11718 
   48000    -3431.041    626.32984   -4057.3708    769.63463    14694.175   -19525.316    288.62731   -718.26793   0.98948261        0.976      0.46272      0.00144     -0.11712 
   49000   -3378.4163    643.75979   -4022.1761    804.11682    14694.209   -19523.892    296.65944    574.36439   0.99562959       0.9755      0.46236      0.00147     -0.11706 
   50000   -3410.8796    624.62545    -4035.505    726.10793    14760.837   -19526.439    287.84189   -983.15774   0.98588725        0.975        0.462       0.0015       -0.117 
   51000   -3368.8633    648.51216   -4017.3754     782.5394    14722.971   -19525.837    298.84944     255.6867    1.0052081       0.9745      0.46164      0.00153     -0.11694 
   52000   -3379.8134    666.14958    -4045.963    767.93117    14707.672   -19524.484    306.97717   -46.940422   0.99723544        0.974      0.46128      0.00156     -0.11688 
   53000    -3329.949    636.71965   -3966.6687    704.60146    14850.025   -19526.003    293.41517   -433.90206    0.9957406       0.9735      0.46092      0.00159     -0.11682 
   54000   -3362.4983    651.35313   -4013.8514    726.67454    14780.979   -19525.184    300.15862   -1066.7919   0.98172403        0.973      0.46056      0.00162     -0.11676 
   55000   -3316.7367     656.6822    -3973.419    726.86311     14819.68   -19522.789    302.61438   -154.49091   0.99973473       0.9725       0.4602      0.00165      -0.1167 
   56000   -3383.7866    650.54316   -4034.3298    835.26767    14653.402   -19524.978    299.78537    1771.4942    1.0213965        0.972      0.45984      0.00168     -0.11664 
   57000   -3380.5918    655.03015   -4035.6219    715.06536    14771.375   -19525.862    301.85308   -945.46119     1.017778       0.9715      0.45948      0.00171     -0.11658 
   58000   -3285.1085    679.03204   -3964.1405    763.78495    14794.602   -19525.707    312.91371    738.34121    1.0193973        0.971      0.45912      0.00174     -0.11652 
   59000   -3383.1902    646.53919   -4029.7294    743.72424    14746.758   -19524.461    297.94025   -400.77121     0.997158       0.9705      0.45876      0.00177     -0.11646 
   60000   -3372.8575    630.38429   -4003.2418     706.4383    14811.313   -19525.246     290.4957   -1223.6281   0.98442882         0.97       0.4584       0.0018      -0.1164 
   61000   -3364.0769    656.38825   -4020.4652    733.60422    14767.087   -19525.399    302.47892   -624.13233    1.0021088       0.9695      0.45804      0.00183     -0.11634 
   62000   -3363.4388    643.84351   -4007.2823    714.86294    14794.356   -19522.586    296.69802   -1177.2723   0.97604606        0.969      0.45768      0.00186     -0.11628 
   63000   -3357.1452    633.82803   -3990.9732    725.42496    14808.958   -19528.152    292.08265   -560.34586   0.99531003       0.9685      0.45732      0.00189     -0.11622 
   64000   -3351.0093    655.53015   -4006.5394    743.00309    14772.095   -19524.391    302.08349    69.525463    1.0229829        0.968      0.45696      0.00192     -0.11616 
   65000   -3389.3869     644.6015   -4033.9884    757.58401    14729.319   -19525.025    297.04732   -203.14996   0.99996086       0.9675       0.4566      0.00195      -0.1161 
   66000   -3411.4509    648.36211    -4059.813    760.94038    14699.403   -19525.165    298.78029   -86.279433    1.0234949        0.967      0.45624      0.00198     -0.11604 
   67000   -3372.1403    649.80109   -4021.9414    748.65888    14747.721   -19523.591    299.44341   -23.050003    1.0232867       0.9665      0.45588      0.00201     -0.11598 
   68000   -3366.7295    649.67553    -4016.405     757.4636    14745.459   -19522.943    299.38555    352.56831    1.0170554        0.966      0.45552      0.00204     -0.11592 
   69000   -3336.8573    647.22337   -3984.0807    733.21036    14804.514   -19526.261    298.25553    -590.6695   0.97265567       0.9655      0.45516      0.00207     -0.11586 
   70000   -3316.2603    649.79453   -3966.0548    702.28433    14851.516   -19522.584    299.44038   -1013.1902   0.98758649        0.965       0.4548       0.0021      -0.1158 
   71000    -3350.485    637.86214   -3988.3471    769.49962    14760.081    -19524.08    293.94166    499.54949    1.0127379       0.9645      0.45444      0.00213     -0.11574 
   72000     -3425.23    651.32199    -4076.552    764.08908    14681.684   -19525.334    300.14427   -614.93543   0.98630289        0.964      0.45408      0.00216     -0.11568 
   73000   -3323.1897    682.58763   -4005.7773    780.44227    14735.727   -19525.572    314.55221    584.97856   0.99422042       0.9635      0.45372      0.00219     -0.11562 
   74000   -3398.6095    649.51796   -4048.1275    852.47055    14621.048   -19524.354    299.31294    1301.7124    1.0012092        0.963      0.45336      0.00222     -0.11556 
   75000    -3388.388    649.26191   -4037.6499    692.79407    14791.815   -19526.196    299.19494   -1886.8985   0.96722783       0.9625        0.453      0.00225      -0.1155 
   76000   -3342.9888    655.02935   -3998.0181    765.26425    14758.903    -19526.46    301.85271    187.72656   0.99551461        0.962      0.45264      0.00228     -0.11544 
   77000   -3391.7096    616.16372   -4007.8733    748.60806        14762   -19521.519    283.94253   -180.84717    1.0017383       0.9615      0.45228      0.00231     -0.11538 
   78000   -3373.2147    660.33815   -4033.5529    680.80035    14806.488    -19526.66    304.29913   -2098.0696   0.99004866        0.961      0.45192      0.00234     -0.11532 
   79000   -3425.6424    651.87002   -4077.5125    758.85866    14685.515   -19526.916    300.39682    -515.6426    1.0134767       0.9605      0.45156      0.00237     -0.11526 
   80000   -3389.3975    625.62185   -4015.0194    756.67958    14749.881   -19525.007    288.30105   -338.35455   0.97911517         0.96       0.4512       0.0024      -0.1152 
   81000   -3348.6824    671.50319   -4020.1856    815.99464    14686.329   -19526.515    309.44424     1397.451    1.0117803       0.9595      0.45084      0.00243     -0.11514 
   82000   -3332.8474    643.72061    -3976.568     752.5341    14788.359   -19523.001    296.64138    295.36459    1.0110442        0.959      0.45048      0.00246     -0.11508 
   83000   -3413.6081    617.22958   -4030.8376    772.99259    14716.759   -19524.183     284.4337    151.07011    1.0022203       0.9585      0.45012      0.00249     -0.11502 
   84000   -3366.2983    682.32294   -4048.6212     798.4511     14669.61   -19522.972    314.43023    452.34814   0.99692972        0.958      0.44976      0.00252     -0.11496 
   85000   -3437.0694    621.00928   -4058.0787    792.37285    14672.445   -19526.594    286.17547    396.54017    1.0044991       0.9575       0.4494      0.00255      -0.1149 
   86000   -3351.1839    685.83427   -4037.0182    796.65994    14689.512   -19527.393    316.04833    866.23593    1.0052393        0.957      0.44904      0.00258     -0.11484 
   87000   -3388.3991    615.56167   -4003.9608    804.50352    14710.524   -19524.307    283.66509    1532.6393    1.0247219       0.9565      0.44868      0.00261     -0.11478 
   88000   -3356.4128    653.09719     -4009.51    755.38704    14756.501   -19526.395    300.96232    294.97718     1.017813        0.956      0.44832      0.00264     -0.11472 
   89000   -3349.1313    639.77118   -3988.9025    808.32616     14718.91   -19522.554    294.82139    844.65132    1.0066324       0.9555      0.44796      0.00267     -0.11466 
   90000   -3275.5446     670.0201   -3945.5647    744.59841    14828.617   -19524.855     308.7608    553.36206    1.0128633        0.955       0.4476       0.0027      -0.1146 
   91000   -3396.3359    673.28976   -4069.6257    778.36173    14671.093    -19524.17    310.26753    199.88341    1.0119483       0.9545      0.44724      0.00273     -0.11454 
   92000   -3338.2026    677.50659   -4015.7092    766.27786    14736.888    -19525.76    312.21074    329.01655    1.0169114        0.954      0.44688      0.00276     -0.11448 
   93000   -3267.6499    711.72625   -3979.3762    750.62511    14787.739    -19524.55    327.97996    221.87556   0.98177864       0.9535      0.44652      0.00279     -0.11442 
   94000   -3326.2183    632.61946   -3958.8378     729.8182    14829.837   -19524.678    291.52571   -225.32829   0.99052306        0.953      0.44616      0.00282     -0.11436 
   95000     -3318.84    685.35794   -4004.1979    755.58257    14762.741   -19526.738    315.82883     305.3872    1.0077178       0.9525       0.4458      0.00285      -0.1143 
   96000   -3368.4322    643.97009   -4012.4022    771.32361    14734.952   -19525.508    296.75635    170.63879   0.99072037        0.952      0.44544      0.00288     -0.11424 
   97000   -3405.9197    659.06255   -4064.9823    760.35626    14695.092   -19526.711     303.7113    -349.6084    1.0126042       0.9515      0.44508      0.00291     -0.11418 
   98000   -3348.0375    623.30125   -3971.3387    725.85612    14823.654   -19526.199    287.23167   -417.72078   0.99941161        0.951      0.44472      0.00294     -0.11412 
   99000   -3399.3902    605.62766   -4005.0179    709.75747    14807.817   -19526.037    279.08727   -935.51705   0.99768809       0.9505      0.44436      0.00297     -0.11406 
  100000   -3338.2883    685.78371    -4024.072    752.07692    14743.655   -19525.485    316.02503    394.05297    1.0230751         0.95        0.444        0.003       -0.114 
  101000   -3356.2635    660.83713   -4017.1006    752.30566    14748.838   -19524.632    304.52907    400.89311    1.0358089       0.9495      0.44364      0.00303     -0.11394 
  102000   -3360.3048    663.38602   -4023.6908    710.03535    14784.689   -19522.697    305.70366   -752.12342    1.0145475        0.949      0.44328      0.00306     -0.11388 
  103000   -3286.9816    677.53505   -3964.5167    721.76078    14829.395   -19522.686    312.22386   -92.745997    1.0066875       0.9485      0.44292      0.00309     -0.11382 
  104000   -3348.8409    644.38983   -3993.2307    829.67067    14697.896   -19526.475    296.94977    1477.2794    1.0068707        0.948      0.44256      0.00312     -0.11376 
  105000   -3313.4294    663.26462    -3976.694     742.4558    14797.287   -19523.188    305.64771   -181.56419   0.99998055       0.9475       0.4422      0.00315      -0.1137 
  106000   -3358.8829    676.83243   -4035.7153    745.96473    14732.648   -19520.725    311.90007   -589.53861   0.99846236        0.947      0.44184      0.00318     -0.11364 
  107000   -3447.8342    640.35856   -4088.1928    771.43821    14657.715   -19524.158    295.09207    167.54917    1.0241261       0.9465      0.44148      0.00321     -0.11358 
  108000   -3397.5448    654.92292   -4052.4677    794.04645    14671.636   -19522.421    301.80367    293.10246    1.0004164        0.946      0.44112      0.00324     -0.11352 
  109000   -3363.7341    632.51169   -3996.2458    778.13914    14739.756   -19521.527    291.47605    648.09827    1.0106829       0.9455      0.44076      0.00327     -0.11346 
  110000   -3332.7648    624.00292   -3956.7677      829.954    14730.695   -19522.595    287.55501    1531.6721   0.99387773        0.945       0.4404       0.0033      -0.1134 
  111000   -3425.9527    622.39375   -4048.3465    844.20473    14627.751   -19525.596    286.81347    1013.2218   0.99215689       0.9445      0.44004      0.00333     -0.11334 
  112000   -3414.3586     661.7474    -4076.106    730.36685    14711.641   -19522.902    304.94854   -1237.8105   0.99130789        0.944      0.43968      0.00336     -0.11328 
  113000   -3398.9333    656.98454   -4055.9178    805.21413    14655.257   -19521.411    302.75371    219.66354    0.9768123       0.9435      0.43932      0.00339     -0.11322 
  114000   -3384.1992    660.42823   -4044.6275    854.24975    14621.641   -19523.691    304.34064    1199.6995   0.97452729        0.943      0.43896      0.00342     -0.11316 
  115000   -3412.9575    670.34903   -4083.3065    749.70933    14685.647   -19523.485    308.91237   -1085.1606    0.9812358       0.9425       0.4386      0.00345      -0.1131 
  116000   -3347.3787    651.81055   -3999.1893    818.06541    14703.369   -19525.204    300.36941    995.28414   0.98828879        0.942      0.43824      0.00348     -0.11304 
  117000   -3340.9482    657.08243   -3998.0307    755.22527    14766.886   -19525.291    302.79882   -121.01111   0.98395341       0.9415      0.43788      0.00351     -0.11298 
  118000    -3378.725    654.47885   -4033.2038    766.57808    14717.202   -19523.541    301.59902   -64.212477     1.009869        0.941      0.43752      0.00354     -0.11292 
  119000   -3368.6603    666.62814   -4035.2884    759.71292    14722.917   -19523.547     307.1977   -85.972919    1.0009424       0.9405      0.43716      0.00357     -0.11286 
  120000   -3370.2111     641.6914   -4011.9025    749.14131     14757.81   -19521.745    295.70627   -170.88196    1.0014179         0.94       0.4368       0.0036      -0.1128 
  121000   -3376.3063    656.47521   -4032.7816     722.5844      14761.7    -19522.27      302.519   -1054.5956   0.98978411       0.9395      0.43644      0.00363     -0.11274 
  122000   -3352.3946    661.41779   -4013.8124    713.87484    14789.467   -19522.488    304.79665   -731.12335     1.003422        0.939      0.43608      0.00366     -0.11268 
  123000   -3398.9465    669.92092   -4068.8674    789.60536    14662.603   -19524.531    308.71509    301.60789    1.0094544       0.9385      0.43572      0.00369     -0.11262 
  124000   -3420.2156    610.92661   -4031.1422    752.54797    14735.601   -19523.358    281.52914   -764.59727   0.98760053        0.938      0.43536      0.00372     -0.11256 
  125000   -3374.3958    659.37428   -4033.7701    762.79388    14720.865    -19522.95    303.85495    100.04607   0.99248663       0.9375        0.435      0.00375      -0.1125 
  126000   -3353.6653    653.29735   -4006.9627    803.82793    14709.397   -19523.925    301.05456    860.14666    1.0062619        0.937      0.43464      0.00378     -0.11244 
  127000   -3433.7436    639.85396   -4073.5976    764.55834    14676.382   -19520.462    294.85954   -135.09769    1.0297424       0.9365      0.43428      0.00381     -0.11238 
  128000   -3349.1681     650.4187   -3999.5868    738.32118    14784.995   -19526.112    299.72801    -454.1085    1.0054128        0.936      0.43392      0.00384     -0.11232 
  129000   -3345.9133    653.04406   -3998.9573    712.39772    14808.349   -19524.932    300.93784   -712.05275    1.0042291       0.9355      0.43356      0.00387     -0.11226 
  130000   -3396.5851     675.5545   -4072.1396    738.33555    14708.872   -19524.547    311.31117   -899.04933   0.99363257        0.935       0.4332       0.0039      -0.1122 
  131000   -3382.2889    598.40116     -3980.69    716.62138    14822.911   -19525.002    275.75713   -509.72611    1.0048622       0.9345      0.43284      0.00393     -0.11214 
  132000   -3359.7906    675.18473   -4034.9753    756.28915     14726.84   -19521.255    311.14077   -508.72305   0.99448082        0.934      0.43248      0.00396     -0.11208 
  133000   -3350.3684    650.98923   -4001.3577    685.52478    14829.644   -19522.264    299.99093   -1496.5218   0.99072475       0.9335      0.43212      0.00399     -0.11202 
  134000   -3444.6739    621.55687   -4066.2308     802.4654    14652.478   -19526.296    286.42782    79.349089   0.99504258        0.933      0.43176      0.00402     -0.11196 
  135000   -3350.3037     665.9969   -4016.3006    795.56602    14706.807   -19524.107    306.90681    467.86147   0.99474872       0.9325       0.4314      0.00405      -0.1119 
  136000   -3351.4316    665.02711   -4016.4587    742.43582    14758.197   -19521.941    306.45991   -502.84104   0.98376371        0.932      0.43104      0.00408     -0.11184 
  137000   -3327.1937    669.64205   -3996.8357    729.19357    14791.592   -19523.528    308.58658   -845.49826   0.99038229       0.9315      0.43068      0.00411     -0.11178 
  138000   -3343.2119    663.79763   -4007.0095    681.90152    14831.672   -19525.128    305.89334   -1352.2737     1.017572        0.931      0.43032      0.00414     -0.11172 
  139000    -3392.488     656.7003   -4049.1883     814.8701    14652.215   -19522.648    302.62272      1151.21    1.0099373       0.9305      0.42996      0.00417     -0.11166 
  140000    -3386.222    627.62694   -4013.8489    716.64457     14788.78   -19525.031    289.22504   -544.42365    1.0139284         0.93       0.4296       0.0042      -0.1116 
  141000   -3353.4858    648.98048   -4002.4662    776.98087    14736.242    -19521.85    299.06525    360.60167    1.0067201       0.9295      0.42924      0.00423     -0.11154 
  142000   -3358.6576    638.07084   -3996.7285    758.62336    14761.849    -19523.77    294.03784    377.18887    1.0005258        0.929      0.42888      0.00426     -0.11148 
  143000   -3306.2853    643.08477   -3949.3701    720.20964    14848.539   -19522.313    296.34837   -599.53887   0.97315922       0.9285      0.42852      0.00429     -0.11142 
  144000   -3370.8043    670.15027   -4040.9545    830.29135    14643.671   -19522.725    308.82078    1282.4964    1.0085257        0.928      0.42816      0.00432     -0.11136 
  145000   -3313.9961    648.61878   -3962.6149    764.60705     14790.45   -19522.808    298.89857    568.25007   0.99938071       0.9275       0.4278      0.00435      -0.1113 
  146000    -3398.549    628.85499    -4027.404     759.6628    14733.948    -19525.76    289.79096   -36.535154     1.014885        0.927      0.42744      0.00438     -0.11124 
  147000   -3356.7714    628.06554   -3984.8369    776.20861      14757.9   -19524.717    289.42716    635.97928    1.0037219       0.9265      0.42708      0.00441     -0.11118 
  148000   -3388.2212    669.53098   -4057.7522     829.8645    14630.974   -19524.166     308.5354    830.42589   0.99421435        0.926      0.42672      0.00444     -0.11112 
  149000   -3382.6304    660.71799   -4043.3484    720.26133    14755.137   -19523.063    304.47417   -1476.0641   0.96947498       0.9255      0.42636      0.00447     -0.11106 
  150000   -3379.6884    655.42636   -4035.1148    819.82293    14659.086   -19520.364    302.03566    462.68364   0.98432694        0.925        0.426       0.0045       -0.111 
  151000   -3407.4169     623.2507   -4030.6676    763.08548    14723.626   -19523.327    287.20837   -67.865876   0.99928193       0.9245      0.42564      0.00453     -0.11094 
  152000   -3323.1715    673.03968   -3996.2112    718.40708    14804.301   -19522.528    310.15229    -32.03858    1.0192211        0.924      0.42528      0.00456     -0.11088 
  153000   -3367.4421    648.09548   -4015.5376    756.12911    14745.743   -19523.512    298.65742   -438.46788   0.99250895       0.9235      0.42492      0.00459     -0.11082 
  154000   -3302.0794    663.40116   -3965.4805    749.94035    14800.288   -19523.017    305.71064    58.680347   0.98951888        0.923      0.42456      0.00462     -0.11076 
  155000   -3346.1968    664.14131   -4010.3381    808.48499     14698.36   -19521.114    306.05171    965.83683   0.99637627       0.9225       0.4242      0.00465      -0.1107 
  156000   -3397.0313    648.74332   -4045.7747    747.37043     14725.17   -19522.149    298.95596   -949.46995   0.98524904        0.922      0.42384      0.00468     -0.11064 
  157000   -3352.2777    676.39899   -4028.6767    756.63194    14732.564   -19521.613    311.70034   -327.47223     1.002516       0.9215      0.42348      0.00471     -0.11058 
  158000   -3336.0072    693.51675   -4029.5239    743.76504    14743.704   -19521.567    319.58859   -248.02512    1.0111463        0.921      0.42312      0.00474     -0.11052 
  159000   -3369.4692    649.82878   -4019.2979    803.31423    14696.185   -19524.016    299.45616    1165.8012     1.037986       0.9205      0.42276      0.00477     -0.11046 
  160000   -3405.4554    641.77409   -4047.2295    777.00062    14694.748   -19522.625    295.74438    765.83324    1.0320621         0.92       0.4224       0.0048      -0.1104 
  161000   -3354.4094    659.01938   -4013.4288     741.8715    14766.676   -19525.437    303.69141   -103.47054    1.0100646       0.9195      0.42204      0.00483     -0.11034 
  162000    -3459.597    622.54676   -4082.1438    764.32671    14677.831   -19526.584    286.88398   -364.67848    1.0135911        0.919      0.42168      0.00486     -0.11028 
  163000   -3342.7265    642.87922   -3985.6057    710.13794    14824.568   -19524.193    296.25365   -399.08213    1.0217099       0.9185      0.42132      0.00489     -0.11022 
  164000   -3348.2757    657.07772   -4005.3534    796.58285    14718.103   -19524.289    302.79665    751.34652   0.99430408        0.918      0.42096      0.00492     -0.11016 
  165000   -3402.1726    652.23418   -4054.4068    780.98349    14683.109   -19523.422    300.56463   -91.286366   0.99372202       0.9175       0.4206      0.00495      -0.1101 
  166000   -3431.8894    643.15997   -4075.0494    795.40699    14646.967    -19523.08    296.38302    148.54368    1.0024594        0.917      0.42024      0.00498     -0.11004 
  167000   -3362.1672    665.31708   -4027.4843    804.77397    14690.664   -19526.451    306.59353    712.24478    1.0000822       0.9165      0.41988      0.00501     -0.10998 
  168000   -3378.6599    650.53454   -4029.1945    747.70328     14742.54   -19522.196     299.7814   -340.06759    1.0008123        0.916      0.41952      0.00504     -0.10992 
  169000   -3394.7073    631.67685   -4026.3841    734.86025    14758.671   -19524.583    291.09134   -532.26576    1.0080548       0.9155      0.41916      0.00507     -0.10986 
  170000   -3365.3248    659.66508   -4024.9899    757.08363    14736.368   -19523.597    303.98896   -431.82803   0.98997987        0.915       0.4188       0.0051      -0.1098 
  171000   -3349.0243    626.26169    -3975.286     747.4303    14793.918   -19522.832    288.59591   -187.75148    1.0011985       0.9145      0.41844      0.00513     -0.10974 
  172000   -3340.5348    653.07443   -3993.6093    706.69627    14821.166   -19525.424    300.95184   -1102.1919   0.99359372        0.914      0.41808      0.00516     -0.10968 
  173000   -3346.9603     634.1133   -3981.0736    716.17487    14820.729   -19524.646    292.21411   -883.44987   0.98861333       0.9135      0.41772      0.00519     -0.10962 
  174000   -3342.0108    653.31618    -3995.327    815.25101    14707.542   -19522.346    301.06324    1155.3487   0.98981886        0.913      0.41736      0.00522     -0.10956 
  175000   -3337.1018    637.29901   -3974.4008    793.44731    14749.893   -19522.927    293.68216    641.84795   0.98446229       0.9125        0.417      0.00525      -0.1095 
  176000    -3399.797    628.18633   -4027.9833    689.88621    14802.896   -19525.329    289.48282   -1470.7976    1.0031823        0.912      0.41664      0.00528     -0.10944 
  177000   -3370.0452    654.59188   -4024.6371    745.79767    14747.268   -19522.489    301.65112   -139.31464    1.0056489       0.9115      0.41628      0.00531     -0.10938 
  178000    -3395.871    648.97035   -4044.8413    809.88209    14665.146   -19524.443    299.06058    1026.3139    1.0208347        0.911      0.41592      0.00534     -0.10932 
  179000   -3391.2073    627.93205   -4019.1393    725.16351    14773.318   -19521.267    289.36565   -273.13807    1.0274096       0.9105      0.41556      0.00537     -0.10926 
  180000   -3290.2305    664.92616   -3955.1566    751.22474      14808.5   -19522.522    306.41339    349.53609    1.0105907         0.91       0.4152       0.0054      -0.1092 
  181000   -3322.0444    636.86473   -3958.9092    713.10795    14845.734    -19523.64    293.48203   -267.08135    1.0155891       0.9095      0.41484      0.00543     -0.10914 
  182000   -3336.8835    642.71166   -3979.5951    701.55163     14837.72   -19524.463    296.17643   -289.65112    1.0360883        0.909      0.41448      0.00546     -0.10908 
  183000    -3325.281    690.03902   -4015.3201    751.50692    14754.963   -19525.777    317.98598    -284.0166   0.98208552       0.9085      0.41412      0.00549     -0.10902 
  184000   -3329.5248    630.90311   -3960.4279    736.96569    14819.328   -19520.635    290.73478     505.2161    1.0254573        0.908      0.41376      0.00552     -0.10896 
  185000   -3390.3353    650.15173   -4040.4871    743.93929    14733.572   -19523.263    299.60499   -970.94493   0.98039348       0.9075       0.4134      0.00555      -0.1089 
  186000   -3350.5145    669.22752   -4019.7421    717.76304    14776.208   -19519.389    308.39555   -1105.8521   0.98086416        0.907      0.41304      0.00558     -0.10884 
  187000   -3416.7377    627.43269   -4044.1704    745.67549    14729.201   -19523.813    289.13553   -450.20779    1.0132798       0.9065      0.41268      0.00561     -0.10878 
  188000   -3409.4984    680.70265   -4090.2011     841.2251    14588.034   -19523.283    313.68356     1198.299     1.013484        0.906      0.41232      0.00564     -0.10872 
  189000   -3384.8435    647.20348   -4032.0469     786.6352    14699.443   -19524.257    298.24637    511.04662   0.99713299       0.9055      0.41196      0.00567     -0.10866 
  190000   -3355.1841    621.08407   -3976.2681    732.17394    14804.043   -19518.358    286.20994    9.3027853    1.0203712        0.905       0.4116       0.0057      -0.1086 
  191000   -3297.4562    666.74616   -3964.2023    761.23714    14793.259   -19522.223    307.25209    308.34266   0.99284651       0.9045      0.41124      0.00573     -0.10854 
  192000    -3343.167    669.84381   -4013.0108    774.63164    14727.982   -19519.046    308.67956    336.92412    0.9829326        0.904      0.41088      0.00576     -0.10848 
  193000   -3359.0651    686.84305   -4045.9082    686.67485    14784.919   -19524.119     316.5132   -1661.2957   0.98813886       0.9035      0.41052      0.00579     -0.10842 
  194000   -3367.4482    644.62779    -4012.076    773.33512    14732.001   -19522.802    297.05943   -26.173251   0.99191645        0.903      0.41016      0.00582     -0.10836 
  195000   -3306.4438    678.26221    -3984.706    733.34119     14799.29   -19521.798    312.55895   -587.68309   0.98588779       0.9025       0.4098      0.00585      -0.1083 
  196000   -3355.9466    649.47573   -4005.4223     785.8821    14725.615   -19520.873    299.29347    1064.1922    1.0296516        0.902      0.40944      0.00588     -0.10824 
  197000   -3375.7632    638.23597   -4013.9992    699.61836     14806.94   -19525.365    294.11393   -1210.3154   0.99968947       0.9015      0.40908      0.00591     -0.10818 
  198000   -3370.5439    665.02638   -4035.5703    762.95438     14720.12   -19523.296    306.45957    90.290887    1.0116781        0.901      0.40872      0.00594     -0.10812 
  199000    -3354.766    640.89559   -3995.6616    735.03103    14789.119   -19523.746    295.33954   -723.04483   0.98562346       0.9005      0.40836      0.00597     -0.10806 
  200000    -3341.498    621.04683   -3962.5448    745.82942    14809.161   -19522.931    286.19278    132.34464    1.0001448          0.9        0.408        0.006       -0.108 
  201000   -3366.1997    647.27648   -4013.4762    772.22752    14723.237   -19517.059    298.28001    136.77719    1.0010753       0.8995      0.40764      0.00603     -0.10794 
  202000   -3384.4915    661.38031   -4045.8718    692.98569    14778.294   -19520.565    304.77938   -1570.4472    1.0043637        0.899      0.40728      0.00606     -0.10788 
  203000   -3387.1437    640.46426    -4027.608    804.23332    14683.015   -19521.309    295.14078    1370.7451    1.0171696       0.8985      0.40692      0.00609     -0.10782 
  204000   -3416.5284    634.97179   -4051.5002    775.43111    14689.651   -19520.072    292.60972    75.022387    1.0138968        0.898      0.40656      0.00612     -0.10776 
  205000   -3388.8427    620.49161   -4009.3343    726.51029    14782.037   -19522.177    285.93692   -575.80439    1.0008819       0.8975       0.4062      0.00615      -0.1077 
  206000   -3356.4766    637.90073   -3994.3773    799.85923    14722.315   -19520.858    293.95944    1270.8912    1.0119129        0.897      0.40584      0.00618     -0.10764 
  207000    -3393.353    614.29602   -4007.6491    765.63007    14741.167   -19520.064    283.08184    199.24458    1.0108683       0.8965      0.40548      0.00621     -0.10758 
  208000   -3327.0074    666.18644   -3993.1938    739.67289    14779.763    -19518.45    306.99416   -380.53573    1.0047745        0.896      0.40512      0.00624     -0.10752 
  209000   -3403.1938    644.99107   -4048.1849     746.9517    14719.812    -19519.43    297.22684   -163.11502    1.0154155       0.8955      0.40476      0.00627     -0.10746 
  210000   -3361.5406    648.07837    -4009.619    720.37397    14786.544   -19519.907    298.64954   -531.18556    1.0173811        0.895       0.4044       0.0063      -0.1074 
  211000    -3379.887     638.4006   -4018.2876    792.15668    14709.286   -19522.617     294.1898    726.28659     1.009945       0.8945      0.40404      0.00633     -0.10734 
  212000    -3415.812    669.56586   -4085.3778    807.55866    14623.525   -19519.599    308.55147    511.22805    1.0078535        0.894      0.40368      0.00636     -0.10728 
  213000   -3357.7578    656.94884   -4014.7067       704.73    14799.729   -19522.329    302.73725   -1371.3214   0.99194304       0.8935      0.40332      0.00639     -0.10722 
  214000   -3363.4793    651.20696   -4014.6863    702.96794    14799.303   -19521.282    300.09126   -1280.6685     1.001837        0.893      0.40296      0.00642     -0.10716 
  215000   -3407.1726    624.90863   -4032.0812    820.47718    14667.168   -19523.724    287.97238     995.4324    1.0038351       0.8925       0.4026      0.00645      -0.1071 
  216000   -3358.9325    660.62512   -4019.5577    738.35394    14758.418   -19520.262    304.43137   -268.97014    1.0026442        0.892      0.40224      0.00648     -0.10704 
  217000   -3394.8586    651.72923   -4046.5878     790.0417    14683.106   -19523.411    300.33194    335.04945    1.0114677       0.8915      0.40188      0.00651     -0.10698 
  218000   -3425.8794    633.94357   -4059.8229     749.4155    14707.966   -19521.582    292.13589   -358.23159    1.0211279        0.891      0.40152      0.00654     -0.10692 
  219000   -3411.1122    651.90474   -4063.0169    788.44086    14668.313   -19524.271    300.41282    713.67322    1.0271909       0.8905      0.40116      0.00657     -0.10686 
  220000   -3451.3476    627.06361   -4078.4112    736.31839     14702.28   -19522.042    288.96545   -894.36749    1.0092948         0.89       0.4008       0.0066      -0.1068 
  221000   -3377.5306    655.68809   -4033.2187    728.23658    14754.271   -19519.513    302.15627   -319.88332     1.031956       0.8895      0.40044      0.00663     -0.10674 
  222000   -3314.8986    631.61349   -3946.5121    684.75762    14884.909   -19521.151    291.06214   -1042.4323      1.00442        0.889      0.40008      0.00666     -0.10668 
  223000   -3309.5177    647.32083   -3956.8385    780.45786    14773.997   -19517.452    298.30044    1252.4602    1.0222885       0.8885      0.39972      0.00669     -0.10662 
  224000   -3325.2471    640.81424   -3966.0613    775.83114    14773.949    -19521.73    295.30206    537.44272   0.98331203        0.888      0.39936      0.00672     -0.10656 
  225000   -3325.5203    659.51026   -3985.0306    721.36165    14806.444   -19518.765    303.91762   -159.28062    1.0103325       0.8875        0.399      0.00675      -0.1065 
  226000   -3363.4938    652.34193   -4015.8357    710.29884    14789.377    -19520.46    300.61428   -632.63689    1.0015815        0.887      0.39864      0.00678     -0.10644 
  227000   -3405.0434    657.09434   -4062.1378    819.55074    14636.145   -19523.529     302.8043     846.8473      1.02019       0.8865      0.39828      0.00681     -0.10638 
  228000    -3403.796    640.34254   -4044.1385     755.7252    14717.473   -19520.591    295.08469   -52.113065    1.0208064        0.886      0.39792      0.00684     -0.10632 
  229000   -3346.7767     646.9285   -3993.7052    799.46357    14720.434   -19519.563    298.11965    1105.0539   0.99872137       0.8855      0.39756      0.00687     -0.10626 
  230000   -3359.4061    664.12213   -4023.5282    752.51166    14741.839   -19521.684    306.04287    230.86459    1.0235232        0.885       0.3972       0.0069      -0.1062 
  231000    -3390.963    637.91819   -4028.8812    721.06332    14766.593   -19522.201    293.96749   -665.55555    1.0128407       0.8845      0.39684      0.00693     -0.10614 
  232000   -3372.3355    648.83553   -4021.1711    683.30289    14814.091   -19521.037    298.99845   -1413.3843   0.99963544        0.884      0.39648      0.00696     -0.10608 
  233000   -3326.0148    658.03002   -3984.0448    775.97971    14756.078   -19520.575    303.23549    559.84478   0.99702521       0.8835      0.39612      0.00699     -0.10602 
  234000   -3340.3098    646.49989   -3986.8097    774.43702    14756.974   -19523.483    297.92214    530.03365    1.0062201        0.883      0.39576      0.00702     -0.10596 
  235000   -3343.8974    645.82661    -3989.724    741.82257    14786.545   -19521.401    297.61188    4.5794193    1.0105883       0.8825       0.3954      0.00705      -0.1059 
  236000   -3334.1997    655.61719   -3989.8169    675.82461    14851.107   -19521.571     302.1236   -1401.4254    1.0091552        0.882      0.39504      0.00708     -0.10584 
  237000   -3419.8572    632.91814   -4052.7754    731.67232    14733.279    -19522.11    291.66335   -710.26522    1.0174871       0.8815      0.39468      0.00711     -0.10578 
  238000   -3411.9991    623.67787    -4035.677    764.63652    14718.419   -19523.219    287.40522    309.87145    1.0118126        0.881      0.39432      0.00714     -0.10572 
  239000   -3427.4732    668.58716   -4096.0603    839.89925    14580.714   -19519.866    308.10046    1044.2768    1.0150877       0.8805      0.39396      0.00717     -0.10566 
  240000   -3391.8805    660.31954   -4052.2001    806.23563    14660.476   -19523.006    304.29055     336.8119    1.0099743         0.88       0.3936       0.0072      -0.1056 
  241000   -3398.5341    675.50384    -4074.038    752.54875    14688.346   -19519.251    311.28783   -507.68388    1.0034986       0.8795      0.39324      0.00723     -0.10554 
  242000   -3369.3974    645.01171   -4014.4091    823.41044    14679.681   -19520.921    297.23635    1278.4832    1.0037607        0.879      0.39288      0.00726     -0.10548 
  243000   -3452.3648     652.8151   -4105.1799    772.02693    14639.202   -19520.873    300.83233    -497.2395    1.0062147       0.8785      0.39252      0.00729     -0.10542 
  244000   -3424.8618    613.46916    -4038.331    789.98237    14688.034   -19521.429    282.70081    433.21215    1.0030578        0.878      0.39216      0.00732     -0.10536 
  245000   -3356.9258    685.06309   -4041.9889       798.89    14677.481   -19521.852    315.69295    889.19509    1.0211786       0.8775       0.3918      0.00735      -0.1053 
  246000   -3430.8884    656.54802   -4087.4364    792.31546     14639.85   -19523.389    302.55255   -80.921792    1.0014431        0.877      0.39144      0.00738     -0.10524 
  247000   -3350.8793    618.63462   -3969.5139    739.78549    14806.191   -19518.761    285.08117    27.217353    1.0034536       0.8765      0.39108      0.00741     -0.10518 
  248000   -3398.3385    649.77688   -4048.1154    745.07777    14723.998   -19519.573    299.43225   -378.75907    1.0061528        0.876      0.39072      0.00744     -0.10512 
  249000   -3376.2087    643.47068   -4019.6793    760.82252     14735.41   -19520.053     296.5262    23.039524    1.0109066       0.8755      0.39036      0.00747     -0.10506 
  250000     -3368.76     647.3605   -4016.1205    721.92508    14779.543   -19521.176    298.31872   -851.73563     1.000507        0.875         0.39       0.0075       -0.105 
  251000   -3424.0017    645.85598   -4069.8577    761.75654    14686.793   -19522.269    297.62541     152.7439    1.0134493       0.8745      0.38964      0.00753     -0.10494 
  252000   -3456.1643    652.65622   -4108.8205     742.6071    14667.439   -19523.286    300.75912   -1294.2922   0.99741329        0.874      0.38928      0.00756     -0.10488 
  253000   -3343.1057    670.08865   -4013.1944    774.25191    14729.555   -19521.581    308.79238    217.36187    1.0017046       0.8735      0.38892      0.00759     -0.10482 
  254000   -3329.2257    663.25423     -3992.48    799.95588    14724.421   -19522.361    305.64293    1116.8753   0.98967036        0.873      0.38856      0.00762     -0.10476 
  255000   -3402.5458    638.39888   -4040.9447    825.57442    14649.576    -19519.79      294.189    649.83333   0.98718647       0.8725       0.3882      0.00765      -0.1047 
  256000   -3344.4281    648.58839   -3993.0164    734.05353    14790.648   -19521.595    298.88457   -668.36033   0.98045825        0.872      0.38784      0.00768     -0.10464 
  257000   -3439.0468    626.49804   -4065.5448    773.34545    14677.164    -19522.32    288.70482    326.15494    1.0219083       0.8715      0.38748      0.00771     -0.10458 
  258000   -3418.7053    646.20233   -4064.9076    724.16188    14731.253       -19523    297.78501   -973.31829    1.0134667        0.871      0.38712      0.00774     -0.10452 
  259000    -3404.575    633.02095   -4037.5959    766.28299    14712.065   -19521.626    291.71073    160.82865     1.015282       0.8705      0.38676      0.00777     -0.10446 
  260000   -3368.4888    656.12667   -4024.6155    745.94848    14744.028   -19520.916    302.35838   -154.87153   0.99690483         0.87       0.3864       0.0078      -0.1044 
  261000    -3310.543    658.96705     -3969.51    759.36413    14789.353   -19521.314     303.6673    598.10259    1.0063146       0.8695      0.38604      0.00783     -0.10434 
  262000   -3324.5001    653.42332   -3977.9234     754.5204    14785.535   -19520.801    301.11261    354.39314    1.0187453        0.869      0.38568      0.00786     -0.10428 
  263000   -3365.1551    656.20447   -4021.3595    732.95946    14764.541   -19521.823    302.39423   -587.22652    1.0014689       0.8685      0.38532      0.00789     -0.10422 
  264000   -3410.7698    602.14197   -4012.9118    786.66579     14719.55   -19521.808    277.48098    577.08109    1.0113607        0.868      0.38496      0.00792     -0.10416 
  265000   -3348.0133    637.64885   -3985.6622    718.61913    14815.245   -19522.545    293.84337   -442.78905     1.030109       0.8675       0.3846      0.00795      -0.1041 
  266000   -3312.8203    661.70076   -3974.5211    752.81182    14788.158    -19519.34    304.92705    329.27129    1.0190121        0.867      0.38424      0.00798     -0.10404 
  267000   -3341.8979    657.55598   -3999.4539    752.82784    14766.969   -19521.173    303.01704    647.07091    1.0326387       0.8665      0.38388      0.00801     -0.10398 
  268000   -3313.8793    703.80386   -4017.6831    711.18243    14789.019   -19521.683    324.32913   -1021.0373    1.0008367        0.866      0.38352      0.00804     -0.10392 
  269000   -3417.3038    631.14844   -4048.4523    738.50081     14731.17   -19522.544    290.84783   -183.24374    1.0186769       0.8655      0.38316      0.00807     -0.10386 
  270000   -3343.0423    648.92482   -3991.9671     759.6891    14765.447   -19520.998     299.0396    299.09239    1.0158384        0.865       0.3828       0.0081      -0.1038 
  271000    -3313.707    640.92577   -3954.6327    702.26544    14858.573   -19520.983    295.35345   -863.71963    1.0026388       0.8645      0.38244      0.00813     -0.10374 
  272000    -3422.779    614.70102     -4037.48     789.1491      14689.3   -19521.218    283.26848    779.16333    1.0125167        0.864      0.38208      0.00816     -0.10368 
  273000   -3374.7593    659.63149   -4034.3907    708.12376    14774.074   -19521.897    303.97348   -878.63959    1.0097242       0.8635      0.38172      0.00819     -0.10362 
  274000   -3403.6116     657.4538   -4061.0654     680.4163    14776.458   -19522.545    302.96995   -2058.7885    1.0142503        0.863      0.38136      0.00822     -0.10356 
  275000   -3369.4375     657.1454   -4026.5829    718.73491    14774.181   -19522.628    302.82783   -1167.3049   0.98836076       0.8625        0.381      0.00825      -0.1035 
  276000   -3331.4349    668.10484   -3999.5398    707.25038    14812.281    -19523.33     307.8782   -778.98625   0.99332142        0.862      0.38064      0.00828     -0.10344 
  277000   -3359.2922    640.11021   -3999.4024    740.87164    14774.782   -19521.346    294.97762   -246.83902    1.0138041       0.8615      0.38028      0.00831     -0.10338 
  278000   -3228.1636    710.03919   -3938.2027    711.92577    14864.762   -19519.984    327.20252    130.65268    1.0015792        0.861      0.37992      0.00834     -0.10332 
  279000   -3356.4682    656.17212   -4012.6403    793.69926    14711.825   -19522.491    302.37932    1038.2267    1.0134471       0.8605      0.37956      0.00837     -0.10326 
  280000   -3319.5004     677.4605   -3996.9609    783.18244    14739.605   -19523.249    312.18951    852.27316    1.0172072         0.86       0.3792       0.0084      -0.1032 
  281000   -3341.8595    641.82695   -3983.6864    766.75156    14757.155   -19516.835    295.76874    311.79566   0.98630993       0.8595      0.37884      0.00843     -0.10314 
  282000   -3421.1682    641.50349   -4062.6717    787.99724    14661.442   -19521.276    295.61968    352.39816    1.0038689        0.859      0.37848      0.00846     -0.10308 
  283000   -3363.3509    658.32104    -4021.672    735.83719    14759.994   -19521.081     303.3696    -979.1557   0.98420035       0.8585      0.37812      0.00849     -0.10302 
  284000   -3371.8152     646.6998    -4018.515    715.91925    14780.734   -19519.646    298.01426   -862.06062   0.99821215        0.858      0.37776      0.00852     -0.10296 
  285000    -3364.585     653.6649   -4018.2499    792.71523    14700.607   -19520.115    301.22394    341.47342   0.98869284       0.8575       0.3774      0.00855      -0.1029 
  286000   -3379.0641    632.75013   -4011.8142    745.86236      14759.7   -19522.174    291.58593   -53.740645    1.0293055        0.857      0.37704      0.00858     -0.10284 
  287000   -3298.1698    673.46291   -3971.6327    767.65768    14775.899   -19522.219    310.34732    336.02193   0.99738981       0.8565      0.37668      0.00861     -0.10278 
  288000   -3377.7525    662.96541   -4040.7179    837.07048    14637.079   -19519.654    305.50983    1651.2403    1.0062123        0.856      0.37632      0.00864     -0.10272 
  289000   -3390.5459    669.85559   -4060.4015    777.25556    14682.161   -19523.457    308.68498   -244.90472    1.0000391       0.8555      0.37596      0.00867     -0.10266 
  290000   -3478.9641    624.57269   -4103.5368    788.82898    14628.251    -19522.86    287.81757   -465.19021    1.0058957        0.855       0.3756       0.0087      -0.1026 
  291000   -3378.0282    659.34758   -4037.3758    768.18268    14711.766   -19522.436    303.84265    555.09504    1.0308614       0.8545      0.37524      0.00873     -0.10254 
  292000   -3385.3009    673.50815    -4058.809    717.96196    14741.913    -19520.68    310.36817   -793.13887    1.0229894        0.854      0.37488      0.00876     -0.10248 
  293000   -3407.4463    627.05429   -4034.5005    776.09541    14706.271   -19521.022    288.96115    93.793959    1.0110512       0.8535      0.37452      0.00879     -0.10242 
  294000   -3393.5058    657.36205   -4050.8678    742.58047    14723.727   -19521.208    302.92767    -906.7926   0.98993961        0.853      0.37416      0.00882     -0.10236 
  295000   -3415.5443    632.39156   -4047.9359    760.27382    14708.714   -19521.325    291.42069   -131.04902   0.99390103       0.8525       0.3738      0.00885      -0.1023 
  296000   -3361.3194    640.91401   -4002.2334    777.30514    14739.339   -19521.703    295.34803   -120.21153   0.98010246        0.852      0.37344      0.00888     -0.10224 
  297000    -3358.369    620.81748   -3979.1865    729.83929    14805.758   -19519.409    286.08709   -668.45269     0.978467       0.8515      0.37308      0.00891     -0.10218 
  298000   -3377.2497    628.64932   -4005.8991    735.30794    14775.748   -19521.059    289.69618   -371.26155    1.0064145        0.851      0.37272      0.00894     -0.10212 
  299000   -3411.8027    644.13932    -4055.942      836.704    14622.967   -19521.433    296.83433    907.75513   0.99633165       0.8505      0.37236      0.00897     -0.10206 
  300000   -3354.6709    657.02682   -4011.6977    707.34274    14801.132   -19522.778    302.77319   -956.30007    1.0088254         0.85        0.372        0.009       -0.102 
  301000   -3313.1281    661.77159   -3974.8997    725.95804    14816.269   -19520.066    304.95969   -102.30989    1.0151549       0.8495      0.37164      0.00903     -0.10194 
  302000   -3300.7746    653.24012   -3954.0147    758.29475    14804.913   -19521.064    301.02819    845.47696    1.0244952        0.849      0.37128      0.00906     -0.10188 
  303000   -3382.8946    625.19002   -4008.0846    781.88815    14724.205   -19517.704    288.10205    -151.6022    0.9739422       0.8485      0.37092      0.00909     -0.10182 
  304000   -3344.9669    693.18298   -4038.1499    757.70595    14719.175   -19518.132    319.43479    284.11033    1.0121637        0.848      0.37056      0.00912     -0.10176 
  305000   -3375.9762    647.68631   -4023.6625      799.631    14690.151   -19517.841    298.46886    630.78349    1.0106356       0.8475       0.3702      0.00915      -0.1017 
  306000   -3311.0564    671.60262   -3982.6591    756.14261    14779.619   -19521.005    309.49006    500.78438    1.0126384        0.847      0.36984      0.00918     -0.10164 
  307000   -3330.4497    635.00331    -3965.453     699.6935    14850.542   -19519.368    292.62425   -678.83071    1.0045318       0.8465      0.36948      0.00921     -0.10158 
  308000   -3423.7284    656.45788   -4080.1863    774.75587    14662.583   -19520.415    302.51101    -82.53429    1.0029719        0.846      0.36912      0.00924     -0.10152 
  309000   -3364.2007    663.08717   -4027.2878    787.71919    14696.118   -19515.582    305.56594    263.23474    1.0034066       0.8455      0.36876      0.00927     -0.10146 
  310000   -3295.2246    681.23726   -3976.4619    749.12995    14787.087    -19518.76    313.92992   -129.05525   0.98292856        0.845       0.3684       0.0093      -0.1014 
  311000   -3384.5849    659.59024   -4044.1752    746.56275    14729.574   -19522.409    303.95447   -648.79814   0.99230485       0.8445      0.36804      0.00933     -0.10134 
  312000   -3385.0812     691.5077   -4076.5889    780.54525    14659.755    -19521.12    318.66278    459.95646    1.0293174        0.844      0.36768      0.00936     -0.10128 
  313000   -3357.5317    663.49512   -4021.0268    779.10427    14719.305   -19521.833    305.75393    651.61407     1.015979       0.8435      0.36732      0.00939     -0.10122 
  314000   -3350.7306    640.72231   -3991.4529    762.84918    14765.184   -19522.529     295.2597    108.00413    0.9927645        0.843      0.36696      0.00942     -0.10116 
  315000   -3435.2974    613.95563    -4049.253     809.2281     14661.19    -19523.37    282.92499    668.66806    1.0017729       0.8425       0.3666      0.00945      -0.1011 
  316000   -3326.5008    647.75238   -3974.2531    723.03533    14817.497   -19518.977    298.49931   -156.08861    1.0095324        0.842      0.36624      0.00948     -0.10104 
  317000   -3372.0262    637.44622   -4009.4724    771.96673    14736.597   -19522.202    293.74999    522.64079    1.0104529       0.8415      0.36588      0.00951     -0.10098 
  318000   -3300.7446    657.87043    -3958.615    726.10848    14832.695   -19521.138    303.16195    45.307772    1.0036776        0.841      0.36552      0.00954     -0.10092 
  319000   -3340.6755    666.98016   -4007.6557    791.10226    14718.682   -19520.895    307.35992    1018.9872    1.0072877       0.8405      0.36516      0.00957     -0.10086 
  320000   -3372.6848    647.20672   -4019.8915    729.70155    14767.293   -19519.835    298.24786   -952.70295   0.98158764         0.84       0.3648       0.0096      -0.1008 
  321000   -3393.4435    617.60452   -4011.0481    792.05917    14714.189   -19521.019    284.60648    322.84391   0.98156465       0.8395      0.36444      0.00963     -0.10074 
  322000   -3351.1181    654.09503   -4005.2131    783.44792    14729.217   -19521.391    301.42215    878.08003    1.0086315        0.839      0.36408      0.00966     -0.10068 
  323000   -3349.6492    672.33249   -4021.9817    778.43392    14719.013   -19521.108     309.8264     80.94644   0.97525871       0.8385      0.36372      0.00969     -0.10062 
  324000   -3456.0104    621.73952     -4077.75    784.19402    14651.412   -19519.052    286.51199    153.58933    1.0202682        0.838      0.36336      0.00972     -0.10056 
  325000   -3398.4942     634.2815   -4032.7757    821.24184    14664.923   -19521.562    292.29162    1121.3756    1.0015281       0.8375        0.363      0.00975      -0.1005 
  326000   -3403.2531    641.87101   -4045.1241    740.21443    14730.767   -19519.952    295.78904   -490.49484   0.99754785        0.837      0.36264      0.00978     -0.10044 
  327000   -3352.7954    630.44701   -3983.2424    688.35143    14841.671   -19517.602     290.5246   -1182.1833   0.99610113       0.8365      0.36228      0.00981     -0.10038 
  328000   -3404.4809    641.71884   -4046.1998    772.24506    14698.187    -19519.27    295.71892    241.55245    1.0271123        0.836      0.36192      0.00984     -0.10032 
  329000   -3388.4175    659.62798   -4048.0455    731.57986    14738.821   -19521.446    303.97187   -797.66545    1.0142285       0.8355      0.36156      0.00987     -0.10026 
  330000   -3350.4211    656.12562   -4006.5467    738.86048    14773.564     -19522.7    302.35789    114.52064    1.0240897        0.835       0.3612       0.0099      -0.1002 
  331000   -3341.4218    661.15455   -4002.5763    772.39481    14741.104   -19520.688    304.67534    372.85313    1.0056301       0.8345      0.36084      0.00993     -0.10014 
  332000   -3318.8821    664.84218   -3983.7243    722.96743    14806.234   -19517.453    306.37469    -524.8557   0.99991257        0.834      0.36048      0.00996     -0.10008 
  333000   -3343.1483    621.55366    -3964.702    738.83005     14812.76    -19521.49    286.42634    211.97447    1.0137444       0.8335      0.36012      0.00999     -0.10002 
  334000   -3359.5287    682.77104   -4042.2997    732.69569    14740.831   -19519.277    314.63672   -701.13592     1.001691        0.833      0.35976      0.01002     -0.09996 
  335000   -3400.7018     616.6058   -4017.3076    761.76496    14734.446   -19517.718    284.14625   -130.02719     1.009425       0.8325       0.3594      0.01005      -0.0999 
  336000   -3341.4893    666.37592   -4007.8652    742.14571     14763.77   -19520.467    307.08147   -312.03935   0.99970438        0.832      0.35904      0.01008     -0.09984 
  337000   -3402.8092    640.93792   -4043.7471    770.33551    14698.384   -19516.945    295.35905    9.5453245   0.99632813       0.8315      0.35868      0.01011     -0.09978 
  338000   -3344.0306    682.58878   -4026.6194    714.47877    14773.747   -19518.472    314.55274   -988.02268    1.0045847        0.831      0.35832      0.01014     -0.09972 
  339000    -3385.626    648.01732   -4033.6433    789.84545    14691.662   -19520.768     298.6214    505.03094    1.0099203       0.8305      0.35796      0.01017     -0.09966 
  340000   -3408.9549    657.78065   -4066.7356    821.32212     14627.33   -19521.451    303.12057    1230.7271    1.0166939         0.83       0.3576       0.0102      -0.0996 
  341000    -3390.853    640.16602   -4031.0191     723.3958    14761.036   -19519.686    295.00334   -893.03101   0.99989003       0.8295      0.35724      0.01023     -0.09954 
  342000   -3374.5224    619.99043   -3994.5128     679.3995    14841.751   -19519.377    285.70596   -1515.0632   0.99540175        0.829      0.35688      0.01026     -0.09948 
  343000   -3273.0999    693.83861   -3966.9385    737.95016    14803.609    -19515.01    319.73692    138.61743   0.99139651       0.8285      0.35652      0.01029     -0.09942 
  344000   -3309.6066    685.58231   -3995.1889     743.3423    14775.136   -19518.445    315.93222   -465.67518   0.98074718        0.828      0.35616      0.01032     -0.09936 
  345000   -3387.2698    647.87101   -4035.1408    836.78947    14642.787   -19520.538    298.55398    1318.0803    1.0051928       0.8275       0.3558      0.01035      -0.0993 
  346000   -3372.1647    669.48102   -4041.6457    795.12914    14677.867   -19519.725    308.51237    1098.5123     1.028097        0.827      0.35544      0.01038     -0.09924 
  347000   -3358.8666     673.6207   -4032.4873     765.7517    14717.796   -19520.003    310.42003    368.30933    1.0169785       0.8265      0.35508      0.01041     -0.09918 
  348000   -3340.4478    675.50473   -4015.9526    804.70447    14694.692   -19520.424    311.28824    666.89696    1.0095422        0.826      0.35472      0.01044     -0.09912 
  349000    -3437.721    629.15233   -4066.8734    741.57662    14706.868    -19519.24    289.92798   -678.06311    1.0084464       0.8255      0.35436      0.01047     -0.09906 
  350000   -3418.7914    633.77771   -4052.5691    744.26915    14722.278   -19521.483    292.05946   -285.07253     1.016612        0.825        0.354       0.0105       -0.099 
  351000   -3339.0132    655.26028   -3994.2735    722.67194    14792.969    -19518.14    301.95913   -579.95668    1.0108415       0.8245      0.35364      0.01053     -0.09894 
  352000   -3363.4163    657.51393   -4020.9303    820.95571    14669.106    -19519.51    302.99766    1549.1692    1.0185848        0.824      0.35328      0.01056     -0.09888 
  353000   -3385.5285     632.4076   -4017.9361    767.09887    14726.253   -19520.674    291.42808   -40.359101    1.0096586       0.8235      0.35292      0.01059     -0.09882 
  354000   -3359.0391    673.25926   -4032.2984    780.59238    14699.581     -19521.9    310.25348    772.08324    1.0293628        0.823      0.35256      0.01062     -0.09876 
  355000   -3310.1631    682.65165   -3992.8148    785.14817    14733.743   -19518.863    314.58171     883.5792    1.0090099       0.8225       0.3522      0.01065      -0.0987 
  356000   -3416.5419    628.38955   -4044.9314     789.7625     14678.22   -19520.638    289.57647    162.32108    0.9942584        0.822      0.35184      0.01068     -0.09864 
  357000   -3334.7061    655.92039   -3990.6265    738.98465    14786.023   -19520.818    302.26332   -68.115198    1.0145721       0.8215      0.35148      0.01071     -0.09858 
  358000    -3325.904    663.26804   -3989.1721    749.71556    14772.618   -19517.582    305.64929   -275.80514    0.9891986        0.821      0.35112      0.01074     -0.09852 
  359000   -3365.9595    608.63806   -3974.5975    711.27234    14827.725   -19518.806    280.47453    -491.1243    1.0099652       0.8205      0.35076      0.01077     -0.09846 
  360000   -3337.7275    662.93957    -4000.667    718.48801    14790.573   -19518.664    305.49792   -453.59893    1.0269073         0.82       0.3504       0.0108      -0.0984 
  361000   -3366.0133    630.73224   -3996.7455    748.99881    14771.771   -19520.722    290.65604   -3.7719482    1.0132965       0.8195      0.35004      0.01083     -0.09834 
  362000   -3340.5042    629.88159   -3970.3858    771.94012    14772.696    -19518.86    290.26404    593.60545    1.0087199        0.819      0.34968      0.01086     -0.09828 
  363000   -3340.1793    657.51602   -3997.6954    722.19617    14796.146    -19520.37    302.99863   -409.22742    1.0105399       0.8185      0.34932      0.01089     -0.09822 
  364000   -3357.4733    662.88912   -4020.3624    743.28142    14751.832   -19519.284    305.47467   -48.046881    1.0341667        0.818      0.34896      0.01092     -0.09816 
  365000   -3413.0781    630.27829   -4043.3564     814.2299    14657.739    -19520.16    290.44685     1192.964    1.0248008       0.8175       0.3486      0.01095      -0.0981 
  366000    -3252.877    689.12962   -3942.0067    745.11944    14824.863   -19516.311     317.5669    291.02138   0.97816781        0.817      0.34824      0.01098     -0.09804 
  367000   -3312.8242    633.51671   -3946.3409    751.85035    14812.933   -19516.823    291.93919    99.188226   0.98037229       0.8165      0.34788      0.01101     -0.09798 
  368000   -3353.6619    645.99311    -3999.655    791.47587    14721.781   -19518.255     297.6886    590.62274    1.0057705        0.816      0.34752      0.01104     -0.09792 
  369000   -3408.7542    644.23984    -4052.994    801.80682    14661.356   -19520.968    296.88065    329.48773    1.0003931       0.8155      0.34716      0.01107     -0.09786 
  370000   -3362.9839    667.19574   -4030.1796    736.86776    14747.663   -19519.596    307.45926   -515.81072    1.0014788        0.815       0.3468       0.0111      -0.0978 
  371000   -3359.3676    652.77286   -4012.1404    801.12373    14704.634   -19519.775    300.81287    1105.9907    1.0162533       0.8145      0.34644      0.01113     -0.09774 
  372000   -3357.3929    641.01405    -3998.407    760.39456    14755.255    -19518.43    295.39413    305.83969    1.0027163        0.814      0.34608      0.01116     -0.09768 
  373000    -3334.335     685.8956   -4020.2306    742.53537    14754.563   -19520.226    316.07659   -140.89458    1.0088425       0.8135      0.34572      0.01119     -0.09762 
  374000   -3375.4983    641.48296   -4016.9813    801.49315    14698.822   -19521.199    295.61022    1067.5994     1.027872        0.813      0.34536      0.01122     -0.09756 
  375000   -3380.5127    664.73696   -4045.2497    735.76781    14737.094   -19521.893     306.3262   -587.66686   0.99905204       0.8125        0.345      0.01125      -0.0975 
  376000   -3340.7124    643.75215   -3984.4646    742.95521    14783.911       -19517    296.65591   -385.96489   0.97658541        0.812      0.34464      0.01128     -0.09744 
  377000   -3375.8808    633.38742   -4009.2682    747.20037     14761.28   -19520.993    291.87961    107.22505     1.011642       0.8115      0.34428      0.01131     -0.09738 
  378000   -3307.5843    664.11424   -3971.6985    740.27315    14801.742   -19519.477    306.03924    3.5404179    1.0031676        0.811      0.34392      0.01134     -0.09732 
  379000   -3308.0607    703.74377   -4011.8045    708.42867    14798.791   -19522.462    324.30144   -772.32604    1.0054039       0.8105      0.34356      0.01137     -0.09726 
  380000   -3398.3322    634.85614   -4033.1883    765.54288    14718.115   -19520.245    292.55643   -40.457498     1.008697         0.81       0.3432       0.0114      -0.0972 
  381000   -3377.9935    670.28604   -4048.2796    817.72544     14650.34   -19520.904    308.88335    1406.2783    1.0314224       0.8095      0.34284      0.01143     -0.09714 
  382000   -3369.3941    647.10179   -4016.4959    728.94012    14767.754   -19521.074    298.19951   -369.87967    1.0185609        0.809      0.34248      0.01146     -0.09708 
  383000    -3361.006    649.40981   -4010.4158    726.22709    14775.344   -19518.324     299.2631   -154.26931    1.0292412       0.8085      0.34212      0.01149     -0.09702 
  384000   -3331.9934    641.45415   -3973.4476    772.74375    14766.731   -19521.354    295.59694    654.23085    1.0080875        0.808      0.34176      0.01152     -0.09696 
  385000   -3326.4931    661.80431   -3988.2974    765.08128    14757.625   -19518.533    304.97477    436.50945    1.0002142       0.8075       0.3414      0.01155      -0.0969 
  386000   -3293.4856    686.34183   -3979.8274    701.44842    14833.288   -19521.314    316.28222   -536.00061    1.0121276        0.807      0.34104      0.01158     -0.09684 
  387000   -3422.6778    615.43869   -4038.1165    746.55335    14730.079    -19519.62    283.60842    228.20245    1.0186043       0.8065      0.34068      0.01161     -0.09678 
  388000    -3327.729    658.98768   -3986.7167    735.12437    14793.284   -19520.908     303.6768   -247.86712    1.0229251        0.806      0.34032      0.01164     -0.09672 
  389000   -3424.2038    659.04148   -4083.2452    809.74425    14621.704   -19520.657    303.70159    337.27175    1.0048802       0.8055      0.33996      0.01167     -0.09666 
  390000   -3390.0372    687.01762   -4077.0548    765.17663    14673.522   -19520.754    316.59365   -201.39704     1.020491        0.805       0.3396       0.0117      -0.0966 
  391000   -3382.5212    611.07143   -3993.5926    747.00683    14772.105   -19518.924    281.59588   -461.19151   0.98246478       0.8045      0.33924      0.01173     -0.09654 
  392000   -3372.7063    643.52764   -4016.2339    748.53459    14749.826   -19520.174    296.55245   -255.76062   0.99898843        0.804      0.33888      0.01176     -0.09648 
  393000   -3406.1937    650.95596   -4057.1497    784.10112    14673.033   -19519.403     299.9756    303.22386    1.0222007       0.8035      0.33852      0.01179     -0.09642 
  394000   -3337.6478    656.85146   -3994.4993     737.9071    14785.132   -19522.099    302.69238   -81.181358   0.99900506        0.803      0.33816      0.01182     -0.09636 
  395000    -3368.262    612.95891   -3981.2209    806.36814    14722.137    -19516.64    282.46568    1170.4391    1.0067393       0.8025       0.3378      0.01185      -0.0963 
  396000   -3379.1612     628.3008    -4007.462    787.48837    14716.454   -19519.946    289.53558    708.72008    1.0163371        0.802      0.33744      0.01188     -0.09624 
  397000   -3302.8138     681.9913   -3984.8051    695.91143    14832.344     -19518.9     314.2774   -309.22014    1.0258501       0.8015      0.33708      0.01191     -0.09618 
  398000   -3379.7447    643.14223   -4022.8869     744.3429     14749.45   -19520.797    296.37485    -118.9653     1.021178        0.801      0.33672      0.01194     -0.09612 
  399000   -3318.6805    650.88812   -3969.5686    755.94644    14787.987   -19518.617    299.94433    241.52321     1.009868       0.8005      0.33636      0.01197     -0.09606 
  400000    -3405.366    620.72872   -4026.0947      764.171     14722.23   -19518.815    286.04618    44.357397    1.0027255          0.8        0.336        0.012       -0.096 
  401000   -3319.1206    658.48709   -3977.6077    747.63936    14788.999   -19519.142    303.44612   0.39065561   0.99829788       0.7995      0.33564      0.01203     -0.09594 
  402000   -3366.3335    642.09243   -4008.4259    713.43726    14790.963   -19518.792    295.89108   -1103.4375    1.0023707        0.799      0.33528      0.01206     -0.09588 
  403000    -3348.416    648.10469   -3996.5207    742.15708    14772.192    -19517.47    298.66167   -49.207146    1.0000205       0.7985      0.33492      0.01209     -0.09582 
  404000    -3430.798    640.24933   -4071.0473     758.5518    14684.045   -19517.854    295.04174    -176.6062    1.0079752        0.798      0.33456      0.01212     -0.09576 
  405000   -3322.3155    667.97404   -3990.2895    761.78949    14759.721   -19517.177    307.81792    135.31249   0.99680085       0.7975       0.3342      0.01215      -0.0957 
  406000   -3334.6408     624.0434   -3958.6842    718.42506    14836.227   -19518.561    287.57367   -999.11706   0.97927222        0.797      0.33384      0.01218     -0.09564 
  407000   -3333.3391    662.39713   -3995.7362    784.45674    14728.657   -19514.653    305.24795     461.0619   0.98577223       0.7965      0.33348      0.01221     -0.09558 
  408000   -3383.2681    644.91385    -4028.182    796.08184    14692.717   -19519.914    297.19125    414.87418   0.98044174        0.796      0.33312      0.01224     -0.09552 
  409000    -3398.798    666.43423   -4065.2323    820.12344      14628.3    -19518.07    307.10834    758.39488    1.0089343       0.7955      0.33276      0.01227     -0.09546 
  410000   -3354.3756    664.72695   -4019.1026    770.85335    14722.943   -19517.195    306.32159    376.70443   0.99767686        0.795       0.3324       0.0123      -0.0954 
  411000   -3393.9093    638.38747   -4032.2967    780.04336    14702.792   -19519.338    294.18375    595.43784    1.0031502       0.7945      0.33204      0.01233     -0.09534 
  412000   -3343.8477    651.20337    -3995.051    754.38939    14761.197   -19516.725    300.08961    93.714289    1.0111287        0.794      0.33168      0.01236     -0.09528 
  413000    -3331.679    630.33409   -3962.0131    692.84975    14858.782   -19517.571    290.47256   -1316.7216   0.98005398       0.7935      0.33132      0.01239     -0.09522 
  414000   -3411.5784    645.31501   -4056.8935    798.90486    14659.308   -19519.162    297.37612    1222.1515     1.019509        0.793      0.33096      0.01242     -0.09516 
  415000   -3364.9431    636.97028   -4001.9134    776.83219     14733.76   -19517.753    293.53067    324.51595    1.0059349       0.7925       0.3306      0.01245      -0.0951 
  416000   -3397.9232    636.97046   -4034.8936    731.16227    14749.264   -19519.545    293.53075   -1001.9023   0.97491237        0.792      0.33024      0.01248     -0.09504 
  417000   -3349.3787    660.64275   -4010.0214    726.35404    14773.842   -19517.688     304.4395   -638.11112   0.99516544       0.7915      0.32988      0.01251     -0.09498 
  418000   -3336.0164     660.6322   -3996.6486    734.69185    14782.974   -19521.101    304.43463    -327.5037    1.0022117        0.791      0.32952      0.01254     -0.09492 
  419000   -3371.4655    638.31487   -4009.7804    726.84792    14772.858   -19514.825    294.15029   -666.20188    1.0142642       0.7905      0.32916      0.01257     -0.09486 
  420000    -3389.772    620.77287   -4010.5448    751.86554    14751.778   -19518.515    286.06653   -18.402889   0.99967027         0.79       0.3288       0.0126      -0.0948 
  421000   -3398.5981    683.60716   -4082.2052    778.79771    14654.082   -19518.803    315.02203    95.593743    1.0135327       0.7895      0.32844      0.01263     -0.09474 
  422000    -3409.351    645.09887   -4054.4499    781.70738    14675.519   -19516.605    297.27651   -305.85499    0.9949527        0.789      0.32808      0.01266     -0.09468 
  423000   -3349.3841     657.1411   -4006.5252    732.20351    14775.578   -19518.563    302.82585   -605.86873    0.9832146       0.7885      0.32772      0.01269     -0.09462 
  424000    -3408.966    626.75178   -4035.7178    810.23067    14669.874   -19520.706    288.82175    1355.9669    1.0157113        0.788      0.32736      0.01272     -0.09456 
  425000   -3339.6802    673.54721   -4013.2274    761.07412    14737.784   -19516.651    310.38617   -354.78069   0.99464218       0.7875        0.327      0.01275      -0.0945 
  426000   -3383.0611    640.67983    -4023.741    737.02192    14752.028   -19517.718    295.24012   -677.20872   0.98669326        0.787      0.32664      0.01278     -0.09444 
  427000   -3314.7757    696.42496   -4011.2007    750.37841    14752.208   -19518.672    320.92877    516.39013    1.0164259       0.7865      0.32628      0.01281     -0.09438 
  428000   -3339.7443    678.97057   -4018.7148    738.25241    14757.016   -19520.164    312.88538   -609.74911   0.99932644        0.786      0.32592      0.01284     -0.09432 
  429000   -3250.9068    700.95594   -3951.8628    715.22589     14844.16   -19515.398    323.01675   -433.15008   0.98544822       0.7855      0.32556      0.01287     -0.09426 
  430000   -3374.3105    640.18508   -4014.4956    779.35393    14720.092   -19519.528    295.01213    866.07734    1.0288801        0.785       0.3252       0.0129      -0.0942 
  431000   -3351.3507    680.42561   -4031.7763    740.15275    14743.068   -19518.821     313.5559   -539.20995    1.0138663       0.7845      0.32484      0.01293     -0.09414 
  432000   -3357.7251    651.05213   -4008.7773    762.24555    14737.105    -19511.89    300.01992   -81.827982   0.99632567        0.784      0.32448      0.01296     -0.09408 
  433000   -3359.3176    670.71626   -4030.0338    774.89898    14705.772   -19517.794     309.0816    778.72885    1.0154506       0.7835      0.32412      0.01299     -0.09402 
  434000   -3306.4686     674.8221   -3981.2907    800.37072    14733.793   -19518.263    310.97367    1238.6106   0.99736332        0.783      0.32376      0.01302     -0.09396 
  435000   -3356.8559    659.75482   -4016.6108    825.63954    14671.427   -19519.074    304.03032    595.23489   0.97926684       0.7825       0.3234      0.01305      -0.0939 
  436000   -3361.6455    655.59484   -4017.2403    809.31729     14686.36    -19516.99     302.1133    1889.3902    1.0288974        0.782      0.32304      0.01308     -0.09384 
  437000   -3326.8499    672.03027   -3998.8802    761.14419    14756.089   -19519.625    309.68713    882.66837    1.0292574       0.7815      0.32268      0.01311     -0.09378 
  438000   -3344.0483    665.17246   -4009.2207    769.85542    14736.214   -19518.726    306.52689    276.93516    1.0037428        0.781      0.32232      0.01314     -0.09372 
  439000   -3324.3189    672.89031   -3997.2092    747.73938    14768.109   -19517.381    310.08345    179.36105   0.99655994       0.7805      0.32196      0.01317     -0.09366 
  440000   -3403.0596     663.8829   -4066.9425    807.10698    14638.629   -19516.624    305.93263    796.11437    1.0145284         0.78       0.3216       0.0132      -0.0936 
  441000   -3328.0235    674.17292   -4002.1964    719.69971     14793.22    -19519.91    310.67451   -1381.6216   0.99253269       0.7795      0.32124      0.01323     -0.09354 
  442000   -3333.7837    660.46175   -3994.2454    722.62469    14797.572   -19517.933    304.35609   -657.64039    1.0014721        0.779      0.32088      0.01326     -0.09348 
  443000   -3350.1088    620.20508   -3970.3138    748.96928    14791.477    -19515.59    285.80488    55.920086    1.0057156       0.7785      0.32052      0.01329     -0.09342 
  444000    -3393.387    650.05103    -4043.438    765.78678    14705.297    -19518.74    299.55858    517.14623    1.0396281        0.778      0.32016      0.01332     -0.09336 
  445000   -3402.9709    640.43734   -4043.4083    814.18217    14658.012   -19519.466    295.12837    815.11423    1.0152786       0.7775       0.3198      0.01335      -0.0933 
  446000   -3354.3222    665.02743   -4019.3496    804.90775    14690.141   -19519.737    306.46006    1017.0842    1.0109793        0.777      0.31944      0.01338     -0.09324 
  447000      -3351.3    643.38768   -3994.6876    716.44225    14805.266   -19518.564    296.48796   -868.07999   0.99348612       0.7765      0.31908      0.01341     -0.09318 
  448000   -3321.0295    682.97406   -4004.0036    754.62166    14756.567   -19518.656    314.73028   -24.917414    1.0006643        0.776      0.31872      0.01344     -0.09312 
  449000   -3444.1061    630.03609   -4074.1422    768.56937    14671.764   -19517.836    290.33524   -285.99803    1.0111714       0.7755      0.31836      0.01347     -0.09306 
  450000   -3352.4492    666.57379    -4019.023    695.47662    14800.021   -19518.599    307.17265   -1116.3049     1.020639        0.775        0.318       0.0135       -0.093 
  451000   -3389.1903    653.35065    -4042.541    760.15321    14714.089   -19519.789    301.07913   -161.98763    1.0038049       0.7745      0.31764      0.01353     -0.09294 
  452000   -3343.6157    663.37406   -4006.9897    758.31363    14749.183   -19519.626    305.69815    699.93965    1.0248192        0.774      0.31728      0.01356     -0.09288 
  453000   -3385.6735    647.30471   -4032.9782    841.52618    14642.076   -19520.582    298.29302    1788.1866     1.018605       0.7735      0.31692      0.01359     -0.09282 
  454000   -3363.2844    645.19374   -4008.4782     766.9756    14738.975   -19517.878    297.32023    463.16713    1.0235478        0.773      0.31656      0.01362     -0.09276 
  455000   -3465.5059     608.3345   -4073.8404    737.76829    14703.489   -19518.667    280.33464   -1000.4331    1.0109275       0.7725       0.3162      0.01365      -0.0927 
  456000   -3317.5919     648.1553   -3965.7472    751.28856    14798.566   -19517.885    298.68499    383.46463    1.0034493        0.772      0.31584      0.01368     -0.09264 
  457000   -3336.7924    667.84435   -4004.6367    708.37498    14800.542   -19516.943    307.75816   -1202.2929     1.000246       0.7715      0.31548      0.01371     -0.09258 
  458000   -3383.9109    622.18115   -4006.0921    746.77981    14763.953   -19519.718     286.7155     111.9435    1.0126177        0.771      0.31512      0.01374     -0.09252 
  459000   -3382.7431    668.42623   -4051.1693    789.38623    14674.122    -19518.66     308.0263    717.49593    1.0195402       0.7705      0.31476      0.01377     -0.09246 
  460000   -3355.0012    654.90675    -4009.908    740.60951    14763.648   -19518.645    301.79621   -450.80786    1.0021165         0.77       0.3144       0.0138      -0.0924 
  461000   -3398.4434    646.60706   -4045.0505    779.55985     14689.11   -19519.382    297.97152    561.09639      1.02537       0.7695      0.31404      0.01383     -0.09234 
  462000   -3313.7068    688.00715   -4001.7139     716.0191    14797.998   -19519.629    317.04964   -422.33903    1.0115545        0.769      0.31368      0.01386     -0.09228 
  463000    -3398.629    656.32502    -4054.954    774.50941     14688.15   -19520.674    302.44978   -253.37587   0.99207995       0.7685      0.31332      0.01389     -0.09222 
  464000   -3433.4215    615.25949    -4048.681    783.17757    14679.989   -19517.005    283.52583    769.98687    1.0246724        0.768      0.31296      0.01392     -0.09216 
  465000   -3333.6631    667.03265   -4000.6957    785.83129    14725.814   -19516.141    307.38411    1495.4824    1.0360133       0.7675       0.3126      0.01395      -0.0921 
  466000   -3384.8968    629.95134   -4014.8481    808.49268    14686.689   -19514.922    290.29618    469.15538   0.99654268        0.767      0.31224      0.01398     -0.09204 
  467000   -3312.3548    659.77849   -3972.1333    687.25773    14856.057   -19518.947    304.04122   -772.11897    1.0172907       0.7665      0.31188      0.01401     -0.09198 
  468000   -3368.3991    643.08871   -4011.4878    707.38818    14796.096    -19518.79    296.35018   -713.04631    1.0209248        0.766      0.31152      0.01404     -0.09192 
  469000   -3364.8144    634.68266    -3999.497    815.93044    14700.868   -19519.062    292.47648    1589.9771    1.0172366       0.7655      0.31116      0.01407     -0.09186 
  470000    -3364.618    664.45992   -4029.0779    746.31249    14739.009   -19517.896    306.19853    -115.8055    1.0133548        0.765       0.3108       0.0141      -0.0918 
  471000   -3366.9667    620.79611   -3987.7628    666.38244    14860.183   -19519.165    286.07724   -1255.0828    1.0148866       0.7645      0.31044      0.01413     -0.09174 
  472000   -3314.2569    690.45392   -4004.7108    777.99586    14732.312    -19519.96    318.17717    672.62824    1.0051099        0.764      0.31008      0.01416     -0.09168 
  473000    -3370.827    660.23182   -4031.0588    789.94682    14693.594   -19518.807    304.25013    489.77109    1.0016397       0.7635      0.30972      0.01419     -0.09162 
  474000   -3351.7167    657.42773   -4009.1444    748.39496    14752.015   -19514.835    302.95794   -430.05217   0.97905585        0.763      0.30936      0.01422     -0.09156 
  475000   -3307.2803    706.02679   -4013.3071    823.47452    14678.738   -19520.357    325.35351     1993.814    1.0245351       0.7625        0.309      0.01425      -0.0915 
  476000   -3328.1259    692.08926   -4020.2152    786.75126    14705.502   -19519.113    318.93078    164.36799   0.99855283        0.762      0.30864      0.01428     -0.09144 
  477000   -3315.2594    666.93161    -3982.191    758.76274    14772.935   -19518.127    307.33755    337.88286   0.97959011       0.7615      0.30828      0.01431     -0.09138 
  478000   -3464.9195    600.98429   -4065.9038    788.38932    14657.385   -19517.209    276.94749    106.96517     1.011825        0.761      0.30792      0.01434     -0.09132 
  479000   -3372.8002    662.80488    -4035.605    755.89031    14721.792   -19517.813    305.43585   -197.37989    1.0067426       0.7605      0.30756      0.01437     -0.09126 
  480000   -3286.3121    652.61705   -3938.9291    728.26916    14840.746   -19513.877    300.74107   -415.15636   0.97626689         0.76       0.3072       0.0144      -0.0912 
  481000   -3323.5764     631.0158   -3954.5922    739.44774     14819.84   -19519.958    290.78671    266.72959   0.99596075       0.7595      0.30684      0.01443     -0.09114 
  482000   -3328.4288    666.69953   -3995.1283    726.23557    14794.023   -19520.085     307.2306   -621.23822   0.99550837        0.759      0.30648      0.01446     -0.09108 
  483000   -3352.0312    648.55363   -4000.5848    745.31872    14767.099   -19519.641    298.86855   -109.24736   0.99950765       0.7585      0.30612      0.01449     -0.09102 
  484000   -3365.4502    636.58956   -4002.0398    768.74576    14740.606   -19518.095    293.35523    454.63498    1.0048468        0.758      0.30576      0.01452     -0.09096 
  485000   -3312.6121    663.44188    -3976.054    823.87391    14711.205    -19518.31     305.7294    1668.3369    1.0155397       0.7575       0.3054      0.01455      -0.0909 
  486000   -3311.3755    641.00918   -3952.3847    694.99416    14864.185   -19516.534    295.39189    -382.4258    1.0227789        0.757      0.30504      0.01458     -0.09084 
  487000   -3356.0962     638.5062   -3994.6024    751.70183    14766.404   -19518.369    294.23846    141.88374    1.0052872       0.7565      0.30468      0.01461     -0.09078 
  488000   -3349.7109    663.84702   -4013.5579    762.39589    14738.817   -19520.822     305.9161   -258.39093   0.99820678        0.756      0.30432      0.01464     -0.09072 
  489000   -3374.3459    635.66242   -4010.0083    751.79721    14750.646   -19518.135    292.92798   -371.12016   0.99986992       0.7555      0.30396      0.01467     -0.09066 
  490000   -3437.4568    615.06223    -4052.519    718.21118    14740.592   -19518.532    283.43493    -1335.233   0.99494802        0.755       0.3036       0.0147      -0.0906 
  491000   -3371.1782    669.36088    -4040.539    743.00463    14731.417   -19518.736    308.45701   -255.07707     1.007017       0.7545      0.30324      0.01473     -0.09054 
  492000   -3364.2005    635.35892   -3999.5594    755.30435    14759.583   -19519.374    292.78812   -520.65534    0.9859655        0.754      0.30288      0.01476     -0.09048 
  493000    -3344.755    659.29571   -4004.0508    714.54134    14794.031   -19517.802    303.81875   -598.82211     1.010844       0.7535      0.30252      0.01479     -0.09042 
  494000   -3365.3528    673.65679   -4039.0096    724.80376    14745.558   -19516.537    310.43666    -1088.571   0.97722261        0.753      0.30216      0.01482     -0.09036 
  495000   -3359.3893    653.65515   -4013.0444    769.06558     14726.41   -19515.447    301.21944   -558.85063   0.97781945       0.7525       0.3018      0.01485      -0.0903 
  496000   -3380.2133    637.21848   -4017.4317    809.06919      14685.7   -19517.989    293.64505    1037.6977     1.018477        0.752      0.30144      0.01488     -0.09024 
  497000   -3345.5306     660.5906   -4006.1212    708.49414    14797.338   -19517.569    304.41546   -1000.9816    1.0031517       0.7515      0.30108      0.01491     -0.09018 
  498000   -3383.0145    608.03477   -3991.0492    718.82371    14804.655   -19518.753    280.19652   -764.46981   0.99626427        0.751      0.30072      0.01494     -0.09012 
  499000   -3403.9954    622.97965   -4026.9751     759.8984    14725.288   -19516.189    287.08346   -272.08433   0.99918346       0.7505      0.30036      0.01497     -0.09006 
  500000   -3365.5695    641.01358   -4006.5831     751.0507    14751.898   -19515.023    295.39392   -253.84305   0.99064353         0.75          0.3        0.015        -0.09 
  501000   -3373.8359    684.87301   -4058.7089    751.32711     14700.33   -19516.671    315.60536   -640.47817    0.9873387       0.7495      0.29964      0.01503     -0.08994 
  502000   -3386.4874    640.23624   -4026.7236     738.1077    14748.209   -19518.209     295.0357   -909.63836    1.0004795        0.749      0.29928      0.01506     -0.08988 
  503000   -3323.2258     640.7956   -3964.0214    693.30257    14854.629   -19516.197    295.29347   -1027.6162   0.99596643       0.7485      0.29892      0.01509     -0.08982 
  504000   -3375.6734    657.12851   -4032.8019     802.1729    14673.441   -19515.904    302.82005    1498.3731    1.0333974        0.748      0.29856      0.01512     -0.08976 
  505000   -3374.2804    660.33372   -4034.6141     730.0167    14745.463   -19515.426    304.29708   -762.26487    1.0032042       0.7475       0.2982      0.01515      -0.0897 
  506000   -3345.5616     630.2298   -3975.7914     750.0057    14783.141   -19515.038     290.4245   -39.926876    1.0022052        0.747      0.29784      0.01518     -0.08964 
  507000   -3292.1971    678.80878   -3971.0059    674.25263    14865.302   -19516.851    312.81082   -1421.4779   0.98729249       0.7465      0.29748      0.01521     -0.08958 
  508000   -3410.3387    636.35318   -4046.6919    792.27819    14671.365   -19517.176     293.2463    863.22832    1.0193864        0.746      0.29712      0.01524     -0.08952 
  509000   -3340.6276    660.38407   -4001.0116    779.77301    14730.386   -19515.437    304.32029    785.37006      1.02763       0.7455      0.29676      0.01527     -0.08946 
  510000   -3354.5632    656.07959   -4010.6428    722.82241    14777.835   -19515.604    302.33669   -154.46078    1.0134087        0.745       0.2964       0.0153      -0.0894 
  511000   -3350.8206    671.80764   -4022.6282    775.37797    14716.073   -19519.224    309.58453    798.90976    1.0234814       0.7445      0.29604      0.01533     -0.08934 
  512000   -3371.8713    664.76515   -4036.6364    804.64782    14671.769   -19516.226    306.33919    1242.0257    1.0404693        0.744      0.29568      0.01536     -0.08928 
  513000   -3394.3718    673.78061   -4068.1524    803.49778    14641.022   -19516.074    310.49373    590.10794    1.0106593       0.7435      0.29532      0.01539     -0.08922 
  514000   -3389.3944    642.25014   -4031.6445    740.78359    14740.436   -19518.053    295.96375   -169.92198    1.0087868        0.743      0.29496      0.01542     -0.08916 
  515000   -3379.3008    655.52224    -4034.823    722.87055     14756.27   -19518.271    302.07984   -769.80324    1.0086157       0.7425       0.2946      0.01545      -0.0891 
  516000   -3365.8142    670.02897   -4035.8432    764.74049    14712.748    -19518.79    308.76488   -114.28532   0.99362272        0.742      0.29424      0.01548     -0.08904 
  517000   -3368.1186    659.47218   -4027.5908     779.4419    14705.687   -19516.423    303.90007    454.74815    1.0121502       0.7415      0.29388      0.01551     -0.08898 
  518000   -3405.4045    637.85594   -4043.2604    770.49977    14696.234   -19516.356     293.9388   -777.21931   0.98578846        0.741      0.29352      0.01554     -0.08892 
  519000   -3430.8431    649.79602   -4080.6391    718.17971    14712.666   -19515.435    299.44107   -1278.5104    1.0090152       0.7405      0.29316      0.01557     -0.08886 
  520000   -3369.8597    655.69147   -4025.5511    729.28956     14757.38   -19517.802    302.15783   -461.53915    1.0221172         0.74       0.2928       0.0156      -0.0888 
  521000   -3349.9647    670.25362   -4020.2184    797.96059    14688.073   -19512.453    308.86841    692.22225   0.99803813       0.7395      0.29244      0.01563     -0.08874 
  522000   -3356.5659    666.23743   -4022.8033    703.75321    14785.149   -19517.169    307.01765   -1036.8286    1.0108929        0.739      0.29208      0.01566     -0.08868 
  523000   -3404.1933    637.66147   -4041.8547    801.00639    14667.237   -19515.766    293.84919    1042.4506    1.0286066       0.7385      0.29172      0.01569     -0.08862 
  524000   -3361.2146    646.27669   -4007.4913    759.08178    14745.227   -19516.581    297.81928    457.49243    1.0163562        0.738      0.29136      0.01572     -0.08856 
  525000   -3409.5628    608.83866   -4018.4014    756.90772    14736.561   -19516.483    280.56697    -130.7279    1.0104315       0.7375        0.291      0.01575      -0.0885 
  526000   -3320.2894     658.2464   -3978.5358    746.67982    14786.263   -19517.856     303.3352    258.73263   0.99605747        0.737      0.29064      0.01578     -0.08844 
  527000   -3368.6976    640.19905   -4008.8967    717.52878    14786.406   -19518.258    295.01856   -1494.6632   0.97627023       0.7365      0.29028      0.01581     -0.08838 
  528000   -3409.1574    646.09653   -4055.2539    738.46474    14720.857   -19518.529    297.73626    -664.6769    1.0077733        0.736      0.28992      0.01584     -0.08832 
  529000   -3367.8442    652.56888   -4020.4131    801.05166    14692.972   -19518.415    300.71887    1284.0657    1.0186926       0.7355      0.28956      0.01587     -0.08826 
  530000   -3294.3871    649.59784   -3943.9849    765.87268    14802.401   -19515.387    299.34974     568.3436    1.0056494        0.735       0.2892       0.0159      -0.0882 
  531000   -3393.6212    628.79829   -4022.4195     772.9723    14718.975   -19518.331    289.76483    164.34938    1.0011756       0.7345      0.28884      0.01593     -0.08814 
  532000   -3305.9247    652.75611   -3958.6808    721.68242    14829.341   -19516.254    300.80515   -627.37803   0.98210363        0.734      0.28848      0.01596     -0.08808 
  533000   -3350.3238    642.91079   -3993.2346    742.43639    14777.438   -19516.038     296.2682    132.46269    1.0087127       0.7335      0.28812      0.01599     -0.08802 
  534000   -3308.1202     643.8924   -3952.0126    715.63384    14839.746     -19515.4    296.72054   -559.26637    1.0024749        0.733      0.28776      0.01602     -0.08796 
  535000   -3422.3045    633.37964   -4055.6842    744.31669    14712.022   -19516.742    291.87602   -431.37909    1.0206685       0.7325       0.2874      0.01605      -0.0879 
  536000    -3384.807    629.33341   -4014.1404    755.30833    14742.582   -19517.314    290.01142    86.744793    1.0150351        0.732      0.28704      0.01608     -0.08784 
  537000   -3338.1677    691.31163   -4029.4793    768.62924    14714.737   -19517.255    318.57243     500.9382    1.0086831       0.7315      0.28668      0.01611     -0.08778 
  538000   -3441.8254    638.14039   -4079.9658    799.64011    14632.048   -19516.619    294.06988    282.66126    1.0051853        0.731      0.28632      0.01614     -0.08772 
  539000   -3390.2612    660.25152   -4050.5127    813.09235    14649.137   -19517.407    304.25921    904.95979     1.000089       0.7305      0.28596      0.01617     -0.08766 
  540000   -3352.5386    664.17412   -4016.7127    721.07025    14776.626   -19518.325    306.06683   -1116.7486   0.99792038         0.73       0.2856       0.0162      -0.0876 
  541000   -3381.2212    668.09817   -4049.3193    761.42736    14697.477   -19514.063    307.87512   -456.15847   0.99504261       0.7295      0.28524      0.01623     -0.08754 
  542000   -3364.9041    677.05163   -4041.9558    762.11026     14703.71   -19514.062    312.00109   -299.72697     0.989858        0.729      0.28488      0.01626     -0.08748 
  543000   -3328.7962    697.17478   -4025.9709    772.46889    14712.817   -19516.228     321.2743   -132.71801   0.99063569       0.7285      0.28452      0.01629     -0.08742 
  544000   -3347.6095    661.38615   -4008.9956    714.78282    14790.475   -19519.277    304.78207   -892.52313   0.99134706        0.728      0.28416      0.01632     -0.08736 
  545000   -3433.3566    614.37147   -4047.7281    750.18184    14714.301   -19515.866    283.11661   -667.12781    1.0014391       0.7275       0.2838      0.01635      -0.0873 
  546000   -3339.6146    655.66779   -3995.2824    802.98835    14712.713   -19516.793    302.14692    585.25116   0.98707859        0.727      0.28344      0.01638     -0.08724 
  547000   -3345.9447    636.33335    -3982.278    722.43795    14809.807   -19519.422    293.23716   -707.07487    1.0076437       0.7265      0.28308      0.01641     -0.08718 
  548000   -3394.9829    622.73526   -4017.7182    757.31473    14737.146   -19517.322    286.97085   -135.39097    1.0026191        0.726      0.28272      0.01644     -0.08712 
  549000   -3351.7162    623.48419   -3975.2004    776.67881    14760.895   -19518.486    287.31597    209.66776   0.99761297       0.7255      0.28236      0.01647     -0.08706 
  550000    -3336.308     661.4218   -3997.7298    774.81969    14739.562   -19518.004     304.7985    130.16964   0.99005628        0.725        0.282       0.0165       -0.087 
  551000   -3381.5496    643.22009   -4024.7697    752.40229    14733.831   -19516.933    296.41073   -689.00994   0.96943362       0.7245      0.28164      0.01653     -0.08694 
  552000   -3386.5312    640.55601   -4027.0872     763.2075    14720.472   -19515.535    295.18306   -168.86423    1.0141875        0.724      0.28128      0.01656     -0.08688 
  553000   -3389.0217    645.94591   -4034.9677    766.49201    14712.141   -19518.981    297.66685    55.636316   0.99633278       0.7235      0.28092      0.01659     -0.08682 
  554000   -3384.7657    671.64284   -4056.4085    783.87664    14668.425   -19515.531    309.50859    564.04237    1.0163905        0.723      0.28056      0.01662     -0.08676 
  555000   -3353.7014    677.61857   -4031.3199    771.29237     14708.12   -19516.677    312.26235    259.42917    1.0068437       0.7225       0.2802      0.01665      -0.0867 
  556000   -3408.6212    631.42313   -4040.0444    795.36048     14673.55   -19517.523    290.97442   -90.586707    1.0024584        0.722      0.27984      0.01668     -0.08664 
  557000   -3404.6822    639.20617   -4043.8884    831.34165    14634.178   -19515.806    294.56102     1352.301   0.99783111       0.7215      0.27948      0.01671     -0.08658 
  558000   -3372.2896    634.01522   -4006.3048    742.96604     14760.29   -19517.007    292.16891   -205.28927   0.98325079        0.721      0.27912      0.01674     -0.08652 
  559000   -3397.5306    697.65205   -4095.1827    804.35918    14612.232   -19516.953    321.49424    181.38389    1.0090816       0.7205      0.27876      0.01677     -0.08646 
  560000   -3425.8533    644.62299   -4070.4763    845.40973    14596.424   -19516.659    297.05722    1350.4968    1.0130177         0.72       0.2784       0.0168      -0.0864 
  561000   -3403.2451    640.96623   -4044.2113    759.65995    14707.661   -19515.043     295.3721   -376.00699    0.9922074       0.7195      0.27804      0.01683     -0.08634 
  562000   -3367.2323    639.10512   -4006.3375    726.24666    14778.596   -19514.589    294.51446   -424.87132    1.0233738        0.719      0.27768      0.01686     -0.08628 
  563000   -3390.1945     637.6551   -4027.8496    750.28693    14732.783   -19518.508    293.84625    47.025582    1.0312381       0.7185      0.27732      0.01689     -0.08622 
  564000   -3362.0388     621.6725   -3983.7114    720.99921    14805.169   -19515.641     286.4811   -453.88489   0.99610306        0.718      0.27696      0.01692     -0.08616 
  565000   -3303.0827    674.03181   -3977.1145    696.34378    14834.091   -19515.278    310.60948   -1309.9611   0.98248611       0.7175       0.2766      0.01695      -0.0861 
  566000   -3334.5873    631.69286   -3966.2802    723.49962    14819.552    -19516.12    291.09871   -446.29439    1.0000745        0.717      0.27624      0.01698     -0.08604 
  567000    -3395.753    646.10673   -4041.8598    793.52793     14675.88    -19516.61    297.74096    45.488497   0.99356383       0.7165      0.27588      0.01701     -0.08598 
  568000   -3335.1284    660.28499   -3995.4134    734.80248    14779.186   -19516.364    304.27463   -409.54943    1.0010876        0.716      0.27552      0.01704     -0.08592 
  569000   -3431.1647    642.98077   -4074.1454    795.70275    14643.597   -19518.341    296.30044   -262.97711   0.98623794       0.7155      0.27516      0.01707     -0.08586 
  570000    -3324.953    641.92194    -3966.875    724.69953    14816.244   -19514.161    295.81251   -539.89368   0.99590093        0.715       0.2748       0.0171      -0.0858 
  571000   -3378.1405    653.89782   -4032.0383    767.30516    14710.557   -19514.481    301.33127     38.97027    1.0054723       0.7145      0.27444      0.01713     -0.08574 
  572000   -3369.9447    642.93784   -4012.8825    783.93197    14715.411   -19516.145    296.28066    581.10404   0.99478715        0.714      0.27408      0.01716     -0.08568 
  573000   -3355.3293     609.4269   -3964.7562    796.38605    14748.974    -19516.15    280.83804    668.25027   0.97317642       0.7135      0.27372      0.01719     -0.08562 
  574000   -3351.9521    642.17285    -3994.125    720.47917    14796.682   -19516.344    295.92814   -536.23279   0.99359438        0.713      0.27336      0.01722     -0.08556 
  575000   -3440.0839    629.97988   -4070.0638     793.5422    14645.836   -19516.244    290.30933    302.14864    1.0131823       0.7125        0.273      0.01725      -0.0855 
  576000    -3366.521    640.59209   -4007.1131    764.56493    14738.803   -19518.442    295.19968    114.36787    1.0007007        0.712      0.27264      0.01728     -0.08544 
  577000   -3418.3803    612.58849   -4030.9688    800.83991    14677.442   -19514.746    282.29498    905.46703    1.0199344       0.7115      0.27228      0.01731     -0.08538 
  578000   -3374.6291    637.90992    -4012.539    822.32798     14676.13   -19516.554    293.96368    1333.9635    1.0015687        0.711      0.27192      0.01734     -0.08532 
  579000   -3309.8661    650.74106   -3960.6072    743.04449     14807.54   -19517.675    299.87657   -310.03995   0.98234152       0.7105      0.27156      0.01737     -0.08526 
  580000   -3337.3389    628.59068   -3965.9295     766.9843    14775.653   -19515.656    289.66916    438.19297   0.99726165         0.71       0.2712       0.0174      -0.0852 
  581000   -3302.8727    685.47674   -3988.3494    758.44783    14763.237    -19517.87    315.88357    629.97598     1.013134       0.7095      0.27084      0.01743     -0.08514 
  582000   -3373.7058    648.01288   -4021.7187    677.85534    14808.494   -19516.615    298.61936   -2310.5886   0.97743037        0.709      0.27048      0.01746     -0.08508 
  583000   -3428.9347    589.36152   -4018.2962    796.55457    14694.209   -19517.189    271.59145    502.65396    1.0042948       0.7085      0.27012      0.01749     -0.08502 
  584000   -3427.1383    608.97841   -4036.1167    721.25523    14753.521   -19516.135    280.63137   -994.17051   0.98843828        0.708      0.26976      0.01752     -0.08496 
  585000   -3325.1843    654.04059   -3979.2249     805.9906    14724.749   -19516.532    301.39707    1420.3245    1.0074634       0.7075       0.2694      0.01755      -0.0849 
  586000   -3396.5738    628.18698   -4024.7608    737.82455    14750.081   -19517.358    289.48312      -409.78    1.0087274        0.707      0.26904      0.01758     -0.08484 
  587000   -3358.6901     672.8065   -4031.4966    717.08114    14759.683   -19514.143    310.04483   -594.71401    1.0172355       0.7065      0.26868      0.01761     -0.08478 
  588000   -3421.2541    644.19035   -4065.4445    779.67697    14666.419   -19518.681    296.85785    395.84645    1.0320027        0.706      0.26832      0.01764     -0.08472 
  589000   -3365.3482    652.90621   -4018.2544    763.94537    14723.561   -19515.005    300.87432    80.411915    1.0246915       0.7055      0.26796      0.01767     -0.08466 
  590000   -3374.0607    649.22451   -4023.2852    755.93611    14729.642   -19517.452     299.1777     132.3599    1.0105568        0.705       0.2676       0.0177      -0.0846 
  591000   -3338.9316    651.55366   -3990.4852    730.91199    14789.525   -19517.171    300.25103   -132.31461    1.0180361       0.7045      0.26724      0.01773     -0.08454 
  592000    -3330.401    678.91941   -4009.3204    728.44454    14771.838   -19516.785     312.8618    -708.3055    1.0033718        0.704      0.26688      0.01776     -0.08448 
  593000    -3424.314    604.24599     -4028.56    820.75685    14662.877   -19518.552    278.45056    1490.1476    1.0158032       0.7035      0.26652      0.01779     -0.08442 
  594000   -3386.3826    678.38148    -4064.764    736.10916    14714.176   -19519.078    312.61391   -762.79985    1.0131193        0.703      0.26616      0.01782     -0.08436 
  595000   -3341.9269    656.64593   -3998.5728    703.67939    14810.121   -19517.313    302.59767   -1490.2385   0.99109828       0.7025       0.2658      0.01785      -0.0843 
  596000   -3384.7373    640.37057   -4025.1079    746.60261    14741.651    -19517.42     295.0976    2.0058618    1.0167612        0.702      0.26544      0.01788     -0.08424 
  597000   -3347.8738    656.26661   -4004.1404    813.65476    14695.626   -19517.563    302.42287    1024.9043    1.0038401       0.7015      0.26508      0.01791     -0.08418 
  598000   -3366.5263    618.19216   -3984.7185    776.73259    14751.194   -19517.779    284.87728    218.52068   0.98711305        0.701      0.26472      0.01794     -0.08412 
  599000     -3326.32    670.76952   -3997.0895    774.66776    14738.805   -19515.316    309.10614    291.80579   0.99891647       0.7005      0.26436      0.01797     -0.08406 
  600000   -3352.7667    678.80135    -4031.568    782.40583    14695.951   -19515.547     312.8074    578.48583     1.003311          0.7        0.264        0.018       -0.084 
  601000   -3368.3028    653.84225    -4022.145     766.5899    14722.655   -19516.696    301.30566    57.005222   0.99827573       0.6995      0.26364      0.01803     -0.08394 
  602000   -3313.1999    688.86412    -4002.064    758.93913    14749.942   -19515.963    317.44455     164.2159   0.99870232        0.699      0.26328      0.01806     -0.08388 
  603000   -3386.6999    654.43056   -4041.1304    738.63817    14731.476   -19515.962    301.57677   -268.73613    1.0195177       0.6985      0.26292      0.01809     -0.08382 
  604000   -3360.9594    656.16069   -4017.1201    723.18156    14771.191   -19517.438    302.37406   -365.41642    1.0337029        0.698      0.26256      0.01812     -0.08376 
  605000   -3325.2712    683.44415   -4008.7153    733.66994    14764.441    -19513.22    314.94691   -431.91107    1.0208449       0.6975       0.2622      0.01815      -0.0837 
  606000   -3354.8957    652.65416   -4007.5498    763.41871    14740.607   -19516.248    300.75817    833.57901    1.0244568        0.697      0.26184      0.01818     -0.08364 
  607000   -3372.8115    639.29732   -4012.1088    816.39136    14683.903   -19516.209    294.60302    1059.1988     1.006469       0.6965      0.26148      0.01821     -0.08358 
  608000   -3327.4671    666.27903   -3993.7461    777.80814    14736.519    -19515.08    307.03682    210.02783    1.0056669        0.696      0.26112      0.01824     -0.08352 
  609000   -3401.6517    616.49813   -4018.1499    753.07117    14738.973   -19515.013    284.09663    336.94324    1.0208763       0.6955      0.26076      0.01827     -0.08346 
  610000   -3344.8034    633.80028   -3978.6036    805.48662    14729.478   -19517.554    292.06986    1143.8982    1.0054512        0.695       0.2604       0.0183      -0.0834 
  611000   -3420.8609    633.69014   -4054.5511    745.44265    14711.392   -19517.386    292.01911   -646.49918    1.0109462       0.6945      0.26004      0.01833     -0.08334 
  612000   -3317.7425    654.32333   -3972.0658    761.77085    14780.965   -19518.203    301.52736    552.24246    1.0071145        0.694      0.25968      0.01836     -0.08328 
  613000   -3377.2747    666.95913   -4044.2339    751.83522    14713.576   -19514.696    307.35023   -197.75213    1.0131261       0.6935      0.25932      0.01839     -0.08322 
  614000   -3386.6288    663.11209   -4049.7409    772.77237    14687.306   -19515.937    305.57742   -540.05007    1.0048386        0.693      0.25896      0.01842     -0.08316 
  615000   -3433.1076    612.51062   -4045.6182    846.87631    14615.292   -19514.274    282.25909    1360.2006    1.0134515       0.6925       0.2586      0.01845      -0.0831 
  616000   -3373.1752    681.27124   -4054.4464    711.54256    14743.329    -19515.65    313.94558   -1304.3142   0.99951036        0.692      0.25824      0.01848     -0.08304 
  617000   -3367.1127    694.50881   -4061.6215    808.10615    14643.265   -19517.269    320.04576     678.4681    1.0107852       0.6915      0.25788      0.01851     -0.08298 
  618000   -3338.0516    656.04208   -3994.0937    698.03142    14820.431   -19517.995     302.3194   -1027.8732   0.98743007        0.691      0.25752      0.01854     -0.08292 
  619000   -3411.7656    665.04361   -4076.8092    772.60173        14661    -19517.47    306.46751    267.04718    1.0283364       0.6905      0.25716      0.01857     -0.08286 
  620000   -3387.8351    633.63924   -4021.4743    785.57547    14704.743   -19516.093    291.99565     505.9043    1.0196446         0.69       0.2568       0.0186      -0.0828 
  621000   -3391.1549     621.1668   -4012.3217    706.56045    14793.379   -19516.848    286.24806   -1004.1977    0.9973075       0.6895      0.25644      0.01863     -0.08274 
  622000   -3404.1169    680.97212   -4085.0891    782.98445    14640.948   -19514.132    313.80774    406.39234    1.0215607        0.689      0.25608      0.01866     -0.08268 
  623000   -3406.3051    660.43415   -4066.7393     755.0852    14689.829   -19515.408    304.34337   -664.98402     1.000342       0.6885      0.25572      0.01869     -0.08262 
  624000   -3355.3492    659.06952   -4014.4187    740.35069    14756.754   -19517.149    303.71452   -570.37771    1.0072506        0.688      0.25536      0.01872     -0.08256 
  625000   -3382.3656    623.52869   -4005.8943    766.62691    14738.193   -19516.711    287.33648   -184.14238   0.98490641       0.6875        0.255      0.01875      -0.0825 
  626000   -3388.5483    637.06928   -4025.6175    814.92011    14670.427   -19515.945    293.57629    765.57601     1.005784        0.687      0.25464      0.01878     -0.08244 
  627000   -3389.0947    636.99771   -4026.0924     739.3994    14746.029   -19517.112    293.54331   -615.47015    1.0167884       0.6865      0.25428      0.01881     -0.08238 
  628000   -3395.4992    635.87226   -4031.3714    789.76557    14692.295   -19517.687    293.02468    794.49778    1.0028299        0.686      0.25392      0.01884     -0.08232 
  629000   -3381.0619    653.73511    -4034.797    751.96111    14725.752   -19517.007    301.25629   -233.74843    1.0081593       0.6855      0.25356      0.01887     -0.08226 
  630000   -3380.8259    635.23495   -4016.0608    851.45594    14642.656    -19516.49    292.73099    1607.3394    1.0144473        0.685       0.2532       0.0189      -0.0822 
  631000   -3342.6222    658.12484   -4000.7471    817.13636    14694.424   -19517.945    303.27918    1807.7342    1.0175949       0.6845      0.25284      0.01893     -0.08214 
  632000   -3383.3661     649.3766   -4032.7427    744.19723    14731.131   -19514.319    299.24779   -336.44158    1.0313752        0.684      0.25248      0.01896     -0.08208 
  633000   -3415.3134    634.58477   -4049.8982    743.24111    14717.232   -19516.999    292.43137   -509.63851    1.0250483       0.6835      0.25212      0.01899     -0.08202 
  634000   -3303.3724    695.12175   -3998.4941    667.35599    14843.954   -19515.911    320.32822   -1357.5758    0.9990464        0.683      0.25176      0.01902     -0.08196 
  635000   -3330.2674    669.47366   -3999.7411    751.11361    14761.485   -19517.474    308.50898   -246.47827   0.98586157       0.6825       0.2514      0.01905      -0.0819 
  636000   -3353.4938    686.30692   -4039.8007    694.31152    14776.221    -19515.75    316.26614   -1714.1137    1.0005413        0.682      0.25104      0.01908     -0.08184 
  637000   -3382.2146    648.19861   -4030.4133    719.13786     14759.51   -19515.885    298.70495   -850.37562    1.0034995       0.6815      0.25068      0.01911     -0.08178 
  638000   -3402.6261    672.15105   -4074.7772    810.61442    14623.797   -19515.422    309.74279    713.32747    1.0051354        0.681      0.25032      0.01914     -0.08172 
  639000   -3367.6765    652.43795   -4020.1145    753.28504    14732.998   -19513.278    300.65853   -639.97635   0.98144164       0.6805      0.24996      0.01917     -0.08166 
  640000   -3378.1505    663.93462   -4042.0851    762.53818     14706.85   -19517.172    305.95647     29.40955    1.0004739         0.68       0.2496       0.0192      -0.0816 
  641000   -3306.5931      687.144   -3993.7371    733.65226    14779.593   -19515.892    316.65189   -476.17216   0.99227155       0.6795      0.24924      0.01923     -0.08154 
  642000   -3359.8071    619.16401   -3978.9711    750.60334    14777.101   -19514.655    285.32513   -10.289667    1.0167646        0.679      0.24888      0.01926     -0.08148 
  643000   -3320.7716     677.3792   -3998.1508    771.48894    14739.298    -19516.66    312.15204    1045.7202     1.022641       0.6785      0.24852      0.01929     -0.08142 
  644000   -3392.2511    669.51367   -4061.7647    769.94505    14679.766   -19516.703    308.52742   -143.64958   0.98851883        0.678      0.24816      0.01932     -0.08136 
  645000   -3329.2364    686.77422   -4016.0106    794.42462    14697.088   -19515.788    316.48148    482.10356    1.0093908       0.6775       0.2478      0.01935      -0.0813 
  646000    -3451.264    620.91631   -4072.1803    785.55483    14654.373    -19517.58    286.13263    176.11821    1.0182039        0.677      0.24744      0.01938     -0.08124 
  647000    -3419.118    643.35867   -4062.4767    782.12653    14669.566   -19518.535    296.47459    812.81481    1.0284739       0.6765      0.24708      0.01941     -0.08118 
  648000   -3390.2318    627.78559   -4018.0174    747.91828    14741.857   -19516.592    289.29815    -104.4579    1.0222539        0.676      0.24672      0.01944     -0.08112 
  649000   -3350.4813    654.55979   -4005.0411    770.56791    14732.839   -19516.662    301.63632    285.32341    1.0053139       0.6755      0.24636      0.01947     -0.08106 
  650000   -3363.5823    633.96439   -3997.5467    768.28469     14743.28   -19516.255    292.14549    541.48924    1.0016966        0.675        0.246       0.0195       -0.081 
  651000   -3349.1007    667.47556   -4016.5763    785.82055    14704.306   -19514.086    307.58821    593.04793    1.0193066       0.6745      0.24564      0.01953     -0.08094 
  652000   -3357.9146    682.87891   -4040.7935    691.52574    14775.686   -19515.077    314.68643   -1606.2211    1.0008505        0.674      0.24528      0.01956     -0.08088 
  653000   -3355.1335    655.15436   -4010.2879     799.0876    14699.078   -19515.847    301.91032     1044.554    1.0011967       0.6735      0.24492      0.01959     -0.08082 
  654000    -3408.077    626.65156   -4034.7286     756.6494    14719.113   -19515.119    288.77557    -367.3132    1.0021315        0.673      0.24456      0.01962     -0.08076 
  655000   -3358.0682    666.92979    -4024.998    775.65912    14707.093   -19513.351    307.33671    426.22612    1.0177211       0.6725       0.2442      0.01965      -0.0807 
  656000   -3356.0415    640.21077   -3996.2522     737.5561    14778.336   -19516.759    295.02396   -247.55753    1.0009423        0.672      0.24384      0.01968     -0.08064 
  657000   -3368.9177     662.0402   -4030.9579    789.14665    14693.349   -19517.286    305.08347    837.11472    1.0199052       0.6715      0.24348      0.01971     -0.08058 
  658000   -3345.3194    680.46086   -4025.7802    802.71729     14679.89   -19514.735    313.57214    780.56182    1.0067687        0.671      0.24312      0.01974     -0.08052 
  659000    -3400.354     636.7635   -4037.1175    768.98187     14705.11   -19517.236    293.43538    449.67934    1.0324378       0.6705      0.24276      0.01977     -0.08046 
  660000   -3403.3269    633.13945   -4036.4663    788.99028    14685.037   -19514.449    291.76534    150.97585   0.99670809         0.67       0.2424       0.0198      -0.0804 
  661000   -3346.6401    677.31978   -4023.9599    774.26799    14709.021   -19513.495    312.12466    485.81929    1.0202773       0.6695      0.24204      0.01983     -0.08034 
  662000   -3319.3699    663.72009   -3983.0899    780.44415    14746.831   -19516.313     305.8576    1020.2589    1.0084784        0.669      0.24168      0.01986     -0.08028 
  663000   -3386.9553    646.56306   -4033.5184    714.50757    14762.802   -19514.598    297.95125   -1134.0373   0.99447972       0.6685      0.24132      0.01989     -0.08022 
  664000   -3314.7594    681.54728   -3996.3067    760.75831     14752.02   -19515.009    314.07279    143.71365   0.98975307        0.668      0.24096      0.01992     -0.08016 
  665000   -3389.5281    647.11018   -4036.6383     737.6623      14734.7   -19515.974    298.20337   -1074.5142   0.97722491       0.6675       0.2406      0.01995      -0.0801 
  666000   -3332.0306    672.37113   -4004.4017    779.86853    14727.205   -19518.207     309.8442    412.72642   0.99974448        0.667      0.24024      0.01998     -0.08004 
  667000   -3411.2088    645.51418    -4056.723    750.01498    14705.365   -19516.189     297.4679   -965.62759   0.99337955       0.6665      0.23988      0.02001     -0.07998 
  668000   -3365.3317     642.8105   -4008.1422     824.1837    14679.753   -19516.295    296.22198    1773.4656    1.0107176        0.666      0.23952      0.02004     -0.07992 
  669000   -3369.9485    664.19211   -4034.1406    765.76874    14711.057   -19515.055    306.07512   -284.52833   0.99169581       0.6655      0.23916      0.02007     -0.07986 
  670000   -3361.3175    635.63408   -3996.9516    702.02918    14806.841   -19512.652    292.91492   -1229.9025   0.99338676        0.665       0.2388       0.0201      -0.0798 
  671000   -3359.2531    661.14911   -4020.4022    764.91262    14725.292   -19515.464    304.67284    742.29381    1.0133789       0.6645      0.23844      0.02013     -0.07974 
  672000   -3364.3849    667.61009    -4031.995    727.80331    14753.777   -19516.942    307.65021   -870.61725   0.99625459        0.664      0.23808      0.02016     -0.07968 
  673000   -3367.9417    654.94189   -4022.8836    765.27928    14723.185   -19515.954     301.8124    110.60094    1.0079271       0.6635      0.23772      0.02019     -0.07962 
  674000   -3421.2962     646.7294   -4068.0256    792.29822    14652.328   -19516.937     298.0279    526.97697    1.0132324        0.663      0.23736      0.02022     -0.07956 
  675000    -3361.828    639.31439   -4001.1424    699.74212    14813.371    -19517.83    294.61089   -968.73719    1.0058235       0.6625        0.237      0.02025      -0.0795 
  676000   -3358.1131     677.0368   -4035.1499    854.00948    14621.356   -19515.352    311.99425    1381.6652    1.0024089        0.662      0.23664      0.02028     -0.07944 
  677000   -3418.9274    632.33311   -4051.2605    768.68588    14692.506   -19517.099    291.39376    -58.63931   0.99419001       0.6615      0.23628      0.02031     -0.07938 
  678000   -3352.0467     672.2985   -4024.3452    731.06768    14749.547   -19509.488    309.81073   -922.83328   0.98419335        0.661      0.23592      0.02034     -0.07932 
  679000    -3398.577    669.42216   -4067.9991    811.18669    14630.815   -19513.942    308.48525    397.65041   0.99307758       0.6605      0.23556      0.02037     -0.07926 
  680000   -3380.0934    662.42071   -4042.5141    802.84939    14666.407   -19517.612    305.25882     522.1644   0.99956311         0.66       0.2352       0.0204      -0.0792 
  681000   -3371.1164    658.32939   -4029.4458    849.40723    14629.687   -19514.838    303.37344    1670.1505     1.002506       0.6595      0.23484      0.02043     -0.07914 
  682000   -3364.2782    633.01594   -3997.2942    767.03622    14749.322   -19516.947    291.70842    464.18034    1.0165323        0.659      0.23448      0.02046     -0.07908 
  683000    -3280.593    680.60333   -3961.1963     756.8234    14793.707   -19515.731    313.63779    974.79162     1.026955       0.6585      0.23412      0.02049     -0.07902 
  684000   -3359.2017    657.47217   -4016.6738    749.44217    14741.718   -19513.005    302.97842   -461.69093   0.98248369        0.658      0.23376      0.02052     -0.07896 
  685000   -3319.4646    656.96862   -3976.4332    759.07349     14775.52   -19515.318    302.74637    238.65881    1.0034064       0.6575       0.2334      0.02055      -0.0789 
  686000   -3331.8295    672.21709   -4004.0466    728.56334    14774.104   -19514.336    309.77322   -496.78242   0.99594278        0.657      0.23304      0.02058     -0.07884 
  687000   -3365.5733    652.75527   -4018.3286    771.18679    14723.805    -19516.26    300.80476    160.30234   0.98691611       0.6565      0.23268      0.02061     -0.07878 
  688000   -3423.1677    629.49215   -4052.6599    791.23089    14666.888   -19516.296    290.08458   -73.277342    0.9960604        0.656      0.23232      0.02064     -0.07872 
  689000   -3390.6506    647.20412   -4037.8547    714.70157    14758.094   -19515.749    298.24666   -873.79719    1.0105698       0.6555      0.23196      0.02067     -0.07866 
  690000    -3391.508    643.11564   -4034.6236    772.61493    14702.341   -19514.932    296.36259    385.87217    1.0030947        0.655       0.2316       0.0207      -0.0786 
  691000   -3385.5854    648.68094   -4034.2664     718.2707    14757.385   -19514.637    298.92721   -1383.4825   0.98509311       0.6545      0.23124      0.02073     -0.07854 
  692000   -3329.9284    658.95048   -3988.8788    790.10356    14732.818   -19515.244    303.65966    704.26798   0.99862916        0.654      0.23088      0.02076     -0.07848 
  693000   -3355.6634    631.47209   -3987.1355    727.45968    14790.485   -19513.126    290.99698   -798.22505   0.97160975       0.6535      0.23052      0.02079     -0.07842 
  694000    -3379.657    660.42988   -4040.0869    803.19798    14671.748   -19517.922     304.3414    688.51333    1.0084943        0.653      0.23016      0.02082     -0.07836 
  695000   -3349.5083     658.1934   -4007.7017    722.16865    14780.857   -19516.621    303.31078   -603.53523    1.0176825       0.6525       0.2298      0.02085      -0.0783 
  696000   -3361.4395    644.17771   -4005.6173    766.89377    14740.508    -19517.77    296.85202    432.09573    1.0023522        0.652      0.22944      0.02088     -0.07824 
  697000   -3333.4736    666.30811   -3999.7817    778.13508    14734.737   -19516.099    307.05022    646.57205     1.009337       0.6515      0.22908      0.02091     -0.07818 
  698000   -3392.2401    691.05312   -4083.2932    833.83184    14588.865   -19513.467     318.4533    635.62183    1.0019038        0.651      0.22872      0.02094     -0.07812 
  699000    -3307.509    703.04037   -4010.5494    744.14687    14754.604   -19515.796     323.9773   -157.58879    1.0085602       0.6505      0.22836      0.02097     -0.07806 
  700000   -3379.8261    668.06455   -4047.8906    709.58404    14754.562   -19515.614    307.85963   -1007.0204    1.0020554         0.65        0.228        0.021       -0.078 
  701000   -3337.4465     676.4498   -4013.8963    752.72311    14744.504    -19516.77    311.72375   -534.16375   0.98480037       0.6495      0.22764      0.02103     -0.07794 
  702000   -3390.0493     626.5005   -4016.5498     773.0421    14717.461   -19513.496    288.70595    120.15126    1.0099151        0.649      0.22728      0.02106     -0.07788 
  703000   -3352.9086    655.27179   -4008.1804    757.12981    14744.871   -19514.678    301.96443   -212.42347   0.98461256       0.6485      0.22692      0.02109     -0.07782 
  704000   -3366.5335    628.07729   -3994.6108    773.40655    14738.256    -19513.74    289.43258   -172.56009   0.99801116        0.648      0.22656      0.02112     -0.07776 
  705000   -3382.9413    626.86671    -4009.808     771.5404    14730.146   -19516.805    288.87471    82.847726    1.0067403       0.6475       0.2262      0.02115      -0.0777 
  706000   -3364.4977    662.73462   -4027.2323    750.85337    14731.558   -19515.813    305.40348   -407.44043   0.98983548        0.647      0.22584      0.02118     -0.07764 
  707000   -3336.7343    680.14374   -4016.8781    754.82122    14736.351   -19514.373      313.426    -518.1707   0.99778987       0.6465      0.22548      0.02121     -0.07758 
  708000   -3401.1765    649.43746    -4050.614    786.49819    14672.613   -19514.662    299.27584   -500.01043   0.98351752        0.646      0.22512      0.02124     -0.07752 
  709000   -3456.9222    633.24364   -4090.1659    738.93916    14676.482   -19512.825    291.81335   -1201.4238   0.99846261       0.6455      0.22476      0.02127     -0.07746 
  710000   -3391.2377    630.23527    -4021.473    758.34328    14731.836   -19514.326    290.42702    117.32749      1.01441        0.645       0.2244       0.0213      -0.0774 
  711000   -3393.7471     627.5629     -4021.31    829.27767    14660.006   -19515.195    289.19553    1272.3087    1.0048061       0.6445      0.22404      0.02133     -0.07734 
  712000   -3374.6076    652.09616   -4026.7038    779.60321    14708.166   -19517.288    300.50103    483.24973    1.0070206        0.644      0.22368      0.02136     -0.07728 
  713000   -3372.8015    681.48887   -4054.2903    810.39514    14643.175   -19514.369    314.04587    964.32194    1.0074647       0.6435      0.22332      0.02139     -0.07722 
  714000   -3380.8305    636.08074   -4016.9112    726.10409    14762.861   -19511.368    293.12075   -1141.7906   0.97772407        0.643      0.22296      0.02142     -0.07716 
  715000    -3388.384    647.85051   -4036.2346    769.99914    14705.716   -19517.456    298.54453    26.542297    1.0065346       0.6425       0.2226      0.02145      -0.0771 
  716000   -3422.1102    607.86443   -4029.9746    790.78287    14687.707   -19512.542    280.11802    618.95204   0.99909995        0.642      0.22224      0.02148     -0.07704 
  717000   -3339.9217    691.45464   -4031.3763    791.24075    14686.335   -19512.867    318.63833     278.6904    1.0035555       0.6415      0.22188      0.02151     -0.07698 
  718000   -3380.2531    649.21369   -4029.4668    718.95828      14761.6   -19515.424    299.17272   -1284.7005   0.99066099        0.641      0.22152      0.02154     -0.07692 
  719000   -3391.8299    634.51367   -4026.3436    706.22571    14777.816   -19516.029    292.39861   -607.95099    1.0262464       0.6405      0.22116      0.02157     -0.07686 
  720000   -3410.5778     658.6514   -4069.2292    758.64415    14682.793   -19516.318    303.52184    -320.0812    1.0048184         0.64       0.2208       0.0216      -0.0768 
  721000   -3384.2515    602.63328   -3986.8848    773.60954    14750.413   -19515.637    277.70739    424.44596   0.99859915       0.6395      0.22044      0.02163     -0.07674 
  722000   -3433.2501    659.76698   -4093.0171    837.67373     14582.59   -19516.654    304.03592    1193.4941    1.0152363        0.639      0.22008      0.02166     -0.07668 
  723000   -3333.7394    656.07935   -3989.8188    723.99443    14795.018   -19513.773    302.33658   -586.59149   0.99957053       0.6385      0.21972      0.02169     -0.07662 
  724000   -3418.5654    659.48475   -4078.0502    761.83966    14670.905   -19514.999    303.90586   -525.80843   0.99371379        0.638      0.21936      0.02172     -0.07656 
  725000   -3373.6435    642.55715   -4016.2007    761.34525    14732.404   -19515.794    296.10523    200.10289    1.0033974       0.6375        0.219      0.02175      -0.0765 
  726000   -3361.3392    648.48749   -4009.8267     732.4076    14764.592    -19512.99    298.83807   -383.09226   0.99395496        0.637      0.21864      0.02178     -0.07644 
  727000   -3453.4629    638.03018    -4091.493    826.92796    14587.841   -19511.514     294.0191     701.9848    1.0122132       0.6365      0.21828      0.02181     -0.07638 
  728000   -3329.6594    680.70115   -4010.3605    824.67474    14676.846   -19516.707    313.68287    1366.5503    1.0015208        0.636      0.21792      0.02184     -0.07632 
  729000   -3378.1849    647.24477   -4025.4297     732.2224     14752.21   -19515.582     298.2654   -751.72595   0.99613699       0.6355      0.21756      0.02187     -0.07626 
  730000   -3433.1028    641.94505   -4075.0478     793.4245    14644.214   -19517.529    295.82316   -301.34895   0.99368681        0.635       0.2172       0.0219      -0.0762 
  731000   -3363.2467    687.25851   -4050.5052    741.53872    14719.514   -19514.987    316.70466   -724.78354   0.99714272       0.6345      0.21684      0.02193     -0.07614 
  732000   -3499.7021    622.35756   -4122.0597    796.54899    14596.722   -19517.729    286.79679   -154.49639    1.0065856        0.634      0.21648      0.02196     -0.07608 
  733000   -3367.9932    623.91469   -3991.9079    717.64909     14799.86   -19515.453    287.51435   -778.14577   0.98912716       0.6335      0.21612      0.02199     -0.07602 
  734000   -3401.8556    604.77686   -4006.6324    772.64357    14733.053   -19515.927     278.6952    -67.23002   0.99561967        0.633      0.21576      0.02202     -0.07596 
  735000   -3351.4794    671.60639   -4023.0858    732.14599     14754.64   -19514.363    309.49179   -507.76481   0.99881808       0.6325       0.2154      0.02205      -0.0759 
  736000   -3430.6598    650.03807   -4080.6979    737.47723    14689.551   -19514.704    299.55261   -972.03652    1.0070098        0.632      0.21504      0.02208     -0.07584 
  737000   -3373.1159    652.10515    -4025.221    719.12589     14763.94   -19513.468    300.50517   -1200.2026   0.99256637       0.6315      0.21468      0.02211     -0.07578 
  738000   -3358.7918    631.84579   -3990.6376    738.91918    14780.587   -19514.524    291.16919   -209.67159    1.0056605        0.631      0.21432      0.02214     -0.07572 
  739000   -3353.1639    662.65691   -4015.8208    766.22435    14729.712   -19518.048    305.36767    285.69683    1.0055946       0.6305      0.21396      0.02217     -0.07566 
  740000   -3372.2058    683.83699   -4056.0428    724.66803    14732.719   -19517.983    315.12794   -385.36411    1.0286753         0.63       0.2136       0.0222      -0.0756 
  741000   -3356.5188    649.77995   -4006.2988    745.60099     14757.37   -19515.526    299.43367   -439.53886    1.0013591       0.6295      0.21324      0.02223     -0.07554 
  742000   -3380.9897    659.35676   -4040.3465    764.42704     14703.11   -19512.374    303.84688   -357.52208   0.97996813        0.629      0.21288      0.02226     -0.07548 
  743000    -3449.203    618.14307   -4067.3461    854.76974    14583.985   -19511.693    284.85465     1590.782    1.0097101       0.6285      0.21252      0.02229     -0.07542 
  744000   -3382.0565    658.88382   -4040.9404    783.71652      14685.8   -19516.109    303.62894    204.80789    1.0074034        0.628      0.21216      0.02232     -0.07536 
  745000   -3386.6935    651.05535   -4037.7489    764.84138    14708.396   -19516.051     300.0214   -302.92055   0.99525446       0.6275       0.2118      0.02235      -0.0753 
  746000   -3351.8249    652.86418   -4004.6891    813.12006    14693.296   -19515.573    300.85495    1264.8532   0.99503196        0.627      0.21144      0.02238     -0.07524 
  747000   -3349.1542    665.03754   -4014.1917      753.634    14737.509   -19510.156    306.46471   -562.70624   0.97881616       0.6265      0.21108      0.02241     -0.07518 
  748000   -3387.7059    634.47099   -4022.1769    825.10022     14662.18   -19512.317    292.37894    1080.9576     1.010231        0.626      0.21072      0.02244     -0.07512 
  749000   -3368.0674    638.57519   -4006.6426    756.78355    14744.341   -19512.868    294.27025    546.05349    1.0266993       0.6255      0.21036      0.02247     -0.07506 
  750000   -3442.7874    626.36555    -4069.153     777.7002    14665.715   -19517.109    288.64377   -241.60774    1.0020166        0.625         0.21       0.0225       -0.075 
  751000   -3379.1564    667.68707   -4046.8435    771.12198    14693.354   -19516.281    307.68568    178.86545    1.0251777       0.6245      0.20964      0.02253     -0.07494 
  752000   -3340.1059    626.63271   -3966.7386    719.18244    14823.283   -19513.804    288.76688   -701.56992   0.99879412        0.624      0.20928      0.02256     -0.07488 
  753000   -3409.6087    628.96367   -4038.5723    743.22556    14726.684   -19513.118    289.84104   -485.92261    1.0086183       0.6235      0.20892      0.02259     -0.07482 
  754000   -3397.6722    633.88125   -4031.5535    761.82743    14719.382   -19516.349    292.10717   -124.25418    1.0053401        0.623      0.20856      0.02262     -0.07476 
  755000   -3399.3648     647.4105   -4046.7753     728.6434    14734.712   -19514.884    298.34177   -713.45961    1.0154148       0.6225       0.2082      0.02265      -0.0747 
  756000   -3385.0857     674.5102   -4059.5959    746.83593    14703.567   -19514.705    310.82994   -427.27139    1.0168797        0.622      0.20784      0.02268     -0.07464 
  757000   -3421.6729    617.14794   -4038.8209    746.31213     14727.98   -19517.179    284.39608   -281.66033    1.0192643       0.6215      0.20748      0.02271     -0.07458 
  758000   -3418.9298    615.26853   -4034.1983    771.23668    14704.053    -19513.75       283.53    97.111428    1.0227286        0.621      0.20712      0.02274     -0.07452 
  759000   -3349.3642    633.31616   -3982.6804    807.48154     14718.79   -19514.808    291.84677    1470.6642    1.0188483       0.6205      0.20676      0.02277     -0.07446 
  760000   -3360.0864    671.25405   -4031.3405    816.80994    14664.235   -19516.204    309.32943     1214.815    1.0109626         0.62       0.2064       0.0228      -0.0744 
  761000   -3389.7927    640.39301   -4030.1858    798.28971    14680.992   -19514.007    295.10795    30.280896   0.99011406       0.6195      0.20604      0.02283     -0.07434 
  762000   -3333.7064    676.92597   -4010.6323    705.14778    14791.493   -19513.657    311.94318   -1405.3721   0.99077354        0.619      0.20568      0.02286     -0.07428 
  763000   -3380.6159    642.13663   -4022.7525    761.52628    14725.334   -19513.445    295.91145   -90.480239   0.98983417       0.6185      0.20532      0.02289     -0.07422 
  764000   -3329.8479    659.49839   -3989.3463    731.76065    14786.248   -19514.203    303.91215   -749.70898   0.97984023        0.618      0.20496      0.02292     -0.07416 
  765000   -3388.1635    621.90285   -4010.0664    755.52309    14744.573   -19514.439    286.58725      10.7279    1.0183961       0.6175       0.2046      0.02295      -0.0741 
  766000   -3363.7121    662.59099   -4026.3031    749.30726    14735.677   -19516.299    305.33729   -321.23179   0.99879157        0.617      0.20424      0.02298     -0.07404 
  767000   -3392.2944    652.49998   -4044.7944    795.02973    14668.684   -19513.571    300.68712    751.75582    1.0248254       0.6165      0.20388      0.02301     -0.07398 
  768000   -3320.3888    668.82203   -3989.2109    749.37702    14770.415   -19515.998     308.2087   -297.46198    1.0230365        0.616      0.20352      0.02304     -0.07392 
  769000   -3343.8679    637.73989   -3981.6078    708.27719    14818.248   -19513.887    293.88532   -944.24323    1.0104775       0.6155      0.20316      0.02307     -0.07386 
  770000   -3297.4892    661.93574   -3959.4249    737.11775    14811.047    -19512.59    305.03534   -105.70194   0.99602754        0.615       0.2028       0.0231      -0.0738 
  771000    -3423.327    626.32903    -4049.656    767.90871    14691.216   -19514.261    288.62694   -113.97495    1.0060197       0.6145      0.20244      0.02313     -0.07374 
  772000   -3348.5866    659.21087   -4007.7975    793.33232    14707.838   -19513.769    303.77965    961.44114    1.0141839        0.614      0.20208      0.02316     -0.07368 
  773000    -3366.783    649.41529   -4016.1983    766.63485    14724.678   -19512.893    299.26562    133.53337    1.0053366       0.6135      0.20172      0.02319     -0.07362 
  774000   -3303.3276    660.81525   -3964.1428    754.58151    14788.751    -19513.31    304.51899   -204.72429   0.99894206        0.613      0.20136      0.02322     -0.07356 
  775000   -3432.8479    636.26503   -4069.1129    756.72816    14684.651   -19515.178    293.20568   -260.76766    1.0172278       0.6125        0.201      0.02325      -0.0735 
  776000   -3374.9579    641.04039   -4015.9983    736.55253    14756.869   -19516.755    295.40627   -677.11903   0.99269288        0.612      0.20064      0.02328     -0.07344 
  777000   -3364.7084     645.1971   -4009.9055    797.26646    14700.738     -19512.6    297.32178    701.50849   0.99744107       0.6115      0.20028      0.02331     -0.07338 
  778000    -3299.142    686.73159   -3985.8736    717.53435     14805.14   -19513.686    316.46184   -584.46054    1.0035478        0.611      0.19992      0.02334     -0.07332 
  779000   -3341.6422    615.83578    -3957.478    815.48376    14736.262    -19512.75    283.79141    1508.4372   0.99885805       0.6105      0.19956      0.02337     -0.07326 
  780000   -3314.8052    639.06098   -3953.8661    701.79339    14855.384   -19515.993    294.49412   -414.66964   0.99828612         0.61       0.1992       0.0234      -0.0732 
  781000   -3344.9735      660.521   -4005.4944    762.09416    14743.829   -19516.248    304.38339     70.36922   0.99159171       0.6095      0.19884      0.02343     -0.07314 
  782000   -3377.0824    628.35707   -4005.4395     734.7635    14765.184   -19512.891     289.5615   -861.52806   0.97701145        0.609      0.19848      0.02346     -0.07308 
  783000   -3351.7637    668.75834   -4020.5221    710.99033    14777.381   -19515.089    308.17935    -756.5896    1.0004582       0.6085      0.19812      0.02349     -0.07302 
  784000   -3330.4378    649.08426   -3979.5221    815.97485    14715.222   -19517.237    299.11307    1743.9987    1.0174988        0.608      0.19776      0.02352     -0.07296 
  785000   -3378.0162    654.35112   -4032.3673    708.91256    14769.279   -19514.633    301.54017   -870.24876    1.0247462       0.6075       0.1974      0.02355      -0.0729 
  786000   -3394.3251    652.80819   -4047.1333    747.15977    14714.552    -19515.08    300.82915   -314.96731    1.0168222        0.607      0.19704      0.02358     -0.07284 
  787000   -3399.2539    616.80895   -4016.0629    808.39605    14684.893   -19515.014    284.23986    1180.8206    1.0192052       0.6065      0.19668      0.02361     -0.07278 
  788000   -3435.2769    647.11196   -4082.3889    778.62924     14652.73    -19517.25    298.20419    54.322166    1.0146914        0.606      0.19632      0.02364     -0.07272 
  789000   -3347.3564    658.04851   -4005.4049    713.05546    14793.562   -19515.978    303.24401   -804.55698   0.99702164       0.6055      0.19596      0.02367     -0.07266 
  790000   -3390.5434    631.09313   -4021.6365    771.35427    14716.762   -19514.553    290.82234    597.22138    1.0157635        0.605       0.1956       0.0237      -0.0726 
  791000   -3371.0813    656.61943   -4027.7007    720.37553    14764.746   -19515.592    302.58546   -926.29387   0.99536809       0.6045      0.19524      0.02373     -0.07254 
  792000    -3379.408    661.64089   -4041.0489     806.8723    14664.021   -19516.658    304.89946    875.58664    1.0224094        0.604      0.19488      0.02376     -0.07248 
  793000   -3330.2287    655.44134     -3985.67     734.1371    14789.294   -19514.605    302.04257   -136.47215   0.99800285       0.6035      0.19452      0.02379     -0.07242 
  794000   -3342.8899    648.63681   -3991.5267    778.96581    14739.565   -19514.342    298.90688    833.01874      1.00883        0.603      0.19416      0.02382     -0.07236 
  795000   -3386.4945    643.05148    -4029.546    768.11165    14713.339   -19514.676    296.33303    254.86891    1.0136166       0.6025       0.1938      0.02385      -0.0723 
  796000   -3377.6893     659.2165   -4036.9058    745.24719    14728.467   -19515.883    303.78224   -437.91092    1.0162289        0.602      0.19344      0.02388     -0.07224 
  797000   -3280.6097    671.94076   -3952.5505    736.93169    14817.921   -19513.625    309.64588    413.19493    1.0173133       0.6015      0.19308      0.02391     -0.07218 
  798000   -3332.9994    672.01752   -4005.0169    825.24621    14675.938   -19511.613    309.68125    1636.1835    1.0139931        0.601      0.19272      0.02394     -0.07212 
  799000   -3396.6024    622.67533   -4019.2778    792.83955    14699.725   -19515.431    286.94323    685.04813    1.0015246       0.6005      0.19236      0.02397     -0.07206 
  800000   -3367.4202    657.48178    -4024.902     762.0761    14723.418   -19515.322    302.98284   -376.31579   0.98301544          0.6        0.192        0.024       -0.072 
  801000   -3405.8457    643.76093   -4049.6066    801.59875     14657.18   -19512.749    296.65996    286.02887    1.0046154       0.5995      0.19164      0.02403     -0.07194 
  802000   -3330.1877    648.47816   -3978.6659    715.92615    14813.779   -19514.716    298.83377   -952.31696   0.98008124        0.599      0.19128      0.02406     -0.07188 
  803000   -3351.7743    671.15628   -4022.9306      789.837      14698.9   -19514.997    309.28437    523.27953   0.98281423       0.5985      0.19092      0.02409     -0.07182 
  804000   -3333.4636    633.90677   -3967.3704    727.20423    14815.192   -19515.127    292.11893   -631.24083   0.98678242        0.598      0.19056      0.02412     -0.07176 
  805000   -3352.4843    627.21898   -3979.7032    768.88989    14758.539   -19510.453    289.03704    166.11024   0.99709291       0.5975       0.1902      0.02415      -0.0717 
  806000   -3305.7485    664.12053   -3969.8691    680.53475    14855.428   -19512.225    306.04213   -1157.6491   0.99613113        0.597      0.18984      0.02418     -0.07164 
  807000   -3392.6084    654.21998   -4046.8284    719.02429    14742.048   -19514.103    301.47973   -1127.9451    1.0199616       0.5965      0.18948      0.02421     -0.07158 
  808000   -3310.1108    675.75055   -3985.8613    769.80745    14752.089   -19514.986    311.40152    173.92596   0.98774711        0.596      0.18912      0.02424     -0.07152 
  809000   -3395.0218    679.38434   -4074.4061    803.53953    14632.557   -19514.553    313.07606    1198.3123    1.0329878       0.5955      0.18876      0.02427     -0.07146 
  810000   -3343.2839     653.5691    -3996.853    712.65419    14797.261   -19513.179    301.17979   -521.01421    1.0151598        0.595       0.1884       0.0243      -0.0714 
  811000   -3351.5444    666.13152   -4017.6759     816.6928    14674.264   -19513.129    306.96885    1299.6395    1.0254907       0.5945      0.18804      0.02433     -0.07134 
  812000   -3367.6593    688.78284   -4056.4421    748.48433    14707.246   -19516.965     317.4071    94.686583    1.0373676        0.594      0.18768      0.02436     -0.07128 
  813000   -3414.1994    632.83999   -4047.0393    727.26813    14736.314   -19513.956    291.62734   -512.31174    1.0281399       0.5935      0.18732      0.02439     -0.07122 
  814000   -3360.2899    658.44834   -4018.7383    734.38514    14757.872    -19514.51    303.42826   -876.22436   0.99742278        0.593      0.18696      0.02442     -0.07116 
  815000   -3423.9085    650.98825   -4074.8967    781.73804    14654.995   -19516.289    299.99048    62.133867    1.0020633       0.5925       0.1866      0.02445      -0.0711 
  816000   -3325.1761    659.29813   -3984.4742    780.09563    14736.398   -19509.359    303.81986    805.41166   0.99802006        0.592      0.18624      0.02448     -0.07104 
  817000   -3374.7691     665.6777   -4040.4468     773.8522    14695.989   -19513.568    306.75972    342.83661    1.0292851       0.5915      0.18588      0.02451     -0.07098 
  818000   -3433.8163    615.17505   -4048.9913    765.88804    14689.483   -19510.065    283.48692   -596.60515   0.99948569        0.591      0.18552      0.02454     -0.07092 
  819000   -3329.2566    659.55069   -3988.8073    736.92255    14782.081   -19511.033    303.93625   -87.967032   0.99810895       0.5905      0.18516      0.02457     -0.07086 
  820000   -3363.4571    656.68724   -4020.1443    811.28485    14678.253   -19514.304     302.6167    1144.7471    1.0222349         0.59       0.1848       0.0246      -0.0708 
  821000   -3391.5641    670.19836   -4061.7625    782.96427    14663.572   -19514.161    308.84294   -77.720596    1.0125193       0.5895      0.18444      0.02463     -0.07074 
  822000   -3282.6406    666.23298   -3948.8736    741.67926    14820.459   -19515.747     307.0156    822.84111    1.0109713        0.589      0.18408      0.02466     -0.07068 
  823000   -3382.6194    647.58073   -4030.2002     745.5912    14733.587   -19516.109    298.42021   -627.17212    1.0040694       0.5885      0.18372      0.02469     -0.07062 
  824000   -3330.6348    630.79772   -3961.4326    688.46449      14856.3   -19511.825    290.68622   -945.68062    1.0201082        0.588      0.18336      0.02472     -0.07056 
  825000   -3389.5057    629.53575   -4019.0414    762.89192    14723.281   -19511.287    290.10467   -360.17717   0.99817504       0.5875        0.183      0.02475      -0.0705 
  826000   -3334.0546    665.70307   -3999.7577    779.74903    14728.343   -19512.503    306.77141    474.41967   0.99829779        0.587      0.18264      0.02478     -0.07044 
  827000   -3383.0397    653.71935    -4036.759    748.05037    14724.855   -19515.717    301.24903   -619.04881    1.0090807       0.5865      0.18228      0.02481     -0.07038 
  828000   -3427.3488    609.23234   -4036.5812    761.90965    14710.315   -19513.644    280.74839   -625.59839   0.99152056        0.586      0.18192      0.02484     -0.07032 
  829000   -3345.3427    687.84825    -4033.191    750.49624    14724.389   -19513.791    316.97642   -214.95195   0.99717893       0.5855      0.18156      0.02487     -0.07026 
  830000   -3372.9581    648.96414   -4021.9222    751.39184    14737.372   -19514.293    299.05772   -395.49363   0.99663228        0.585       0.1812       0.0249      -0.0702 
  831000   -3339.9296    632.08758   -3972.0172    749.64848     14785.68   -19513.998    291.28061   -307.81483   0.99385225       0.5845      0.18084      0.02493     -0.07014 
  832000   -3325.0397    666.89337    -3991.933    751.63505    14763.671   -19511.439    307.31992   -314.85808   0.98083944        0.584      0.18048      0.02496     -0.07008 
  833000   -3383.5311    662.13217   -4045.6633    765.76702    14696.848   -19513.708    305.12585    115.46692    1.0218635       0.5835      0.18012      0.02499     -0.07002 
  834000   -3328.6873    676.24381   -4004.9311    727.13646    14777.884   -19515.321    311.62882   -505.56715    1.0031222        0.583      0.17976      0.02502     -0.06996 
  835000   -3335.7672    667.74113   -4003.5083    705.39463    14798.221   -19513.851    307.71059   -1211.7158    1.0129521       0.5825       0.1794      0.02505      -0.0699 
  836000   -3387.1256     640.2297   -4027.3553    852.96096    14631.147   -19515.389    295.03269    2000.4991    1.0159713        0.582      0.17904      0.02508     -0.06984 
  837000   -3375.0928    654.57837   -4029.6712    746.44676    14733.136   -19513.872    301.64489   -119.04212     1.001251       0.5815      0.17868      0.02511     -0.06978 
  838000   -3359.6448    657.47178   -4017.1166    747.91144    14746.297   -19516.126    302.97824   -739.05502   0.99461842        0.581      0.17832      0.02514     -0.06972 
  839000   -3392.7973    642.07085   -4034.8681    737.15295    14735.859   -19511.802    295.88113   -247.87885    1.0051099       0.5805      0.17796      0.02517     -0.06966 
  840000   -3302.5061    674.79082   -3977.2969    763.27726    14766.768    -19513.29    310.95925    465.49455      1.01188         0.58       0.1776       0.0252      -0.0696 
  841000   -3366.1284    630.97642   -3997.1048    737.08114    14775.027   -19513.681    290.76856   -446.77545    1.0057001       0.5795      0.17724      0.02523     -0.06954 
  842000   -3321.7124     677.1573   -3998.8697    776.14195    14727.432   -19510.864    312.04978    58.810799    1.0033451        0.579      0.17688      0.02526     -0.06948 
  843000   -3359.6794    648.30743   -4007.9869    729.84062    14773.312   -19515.094    298.75509   -471.75732    0.9996318       0.5785      0.17652      0.02529     -0.06942 
  844000   -3305.8923    681.68859   -3987.5809    772.35739    14744.236   -19509.318    314.13791    384.85657   0.99827111        0.578      0.17616      0.02532     -0.06936 
  845000   -3337.3792    629.70932   -3967.0885    728.47623     14813.63   -19513.301    290.18465    -750.7686   0.98229376       0.5775       0.1758      0.02535      -0.0693 
  846000   -3333.0114    627.57117   -3960.5825    723.86499    14825.496   -19514.558    289.19935   -327.11617    1.0034793        0.577      0.17544      0.02538     -0.06924 
  847000   -3329.0414    637.84558    -3966.887     735.4872    14806.839    -19514.37    293.93403    80.740537    1.0164888       0.5765      0.17508      0.02541     -0.06918 
  848000   -3352.6759    669.18694   -4021.8629    746.75362    14740.515   -19513.904    308.37686   -224.42902    1.0173277        0.576      0.17472      0.02544     -0.06912 
  849000   -3340.4183    633.95041   -3974.3687    771.45653    14762.207   -19513.933    292.13905    636.69938     1.013799       0.5755      0.17436      0.02547     -0.06906 
  850000   -3388.6705    608.86553   -3997.5361    709.07447    14802.739   -19514.854    280.57935   -767.91951    1.0113204        0.575        0.174       0.0255       -0.069 
  851000   -3354.3125    660.23079   -4014.5433    766.29963     14728.06   -19516.067    304.24965    429.11038    1.0239184       0.5745      0.17364      0.02553     -0.06894 
  852000   -3385.5807    605.72356   -3991.3043    707.18543    14810.353    -19512.46    279.13146   -1163.8552    1.0000346        0.574      0.17328      0.02556     -0.06888 
  853000   -3352.5999    633.73509    -3986.335    762.02862    14763.103   -19516.487    292.03982    144.88823   0.98686411       0.5735      0.17292      0.02559     -0.06882 
  854000   -3348.0867      637.254   -3985.3407    741.98897    14782.895   -19515.472    293.66142    286.36659    1.0127735        0.573      0.17256      0.02562     -0.06876 
  855000   -3370.5423    624.98374    -3995.526    761.65928     14751.26   -19514.896    288.00699    -520.0651   0.98266782       0.5725       0.1722      0.02565      -0.0687 
  856000   -3349.6165     674.8938   -4024.5103    791.27162    14697.224    -19516.35    311.00671    520.06818    1.0019477        0.572      0.17184      0.02568     -0.06864 
  857000   -3321.2224    664.17718   -3985.3996    759.35886    14759.989   -19511.657    306.06824    484.16576    1.0049819       0.5715      0.17148      0.02571     -0.06858 
  858000   -3370.5573    693.31187   -4063.8692    766.32267    14680.251   -19513.288    319.49418   -248.40144    1.0083823        0.571      0.17112      0.02574     -0.06852 
  859000   -3375.4512    646.42851   -4021.8797    786.42452     14700.35   -19512.979    297.88924    231.27442    1.0052398       0.5705      0.17076      0.02577     -0.06846 
  860000   -3377.9112    630.70731   -4008.6185    704.16026    14795.422    -19513.41    290.64455    -551.3897    1.0139496         0.57       0.1704       0.0258      -0.0684 
  861000   -3367.5412    653.79101   -4021.3322    723.90563    14767.206   -19516.065    301.28205   -694.86193   0.99066217       0.5695      0.17004      0.02583     -0.06834 
  862000   -3366.8046    635.03732    -4001.842     755.8608    14748.694   -19510.631    292.63992   -418.87732   0.98243142        0.569      0.16968      0.02586     -0.06828 
  863000   -3322.3783     640.1704   -3962.5487    725.59879    14821.601   -19514.236    295.00536   -422.44271   0.99210668       0.5685      0.16932      0.02589     -0.06822 
  864000   -3415.5799    655.95762   -4071.5375     803.7711    14633.914   -19514.082    302.28048    524.76221    1.0018373        0.568      0.16896      0.02592     -0.06816 
  865000   -3354.9407    666.23921   -4021.1799    783.91357     14705.55   -19514.233    307.01847    38.422788    0.9850001       0.5675       0.1686      0.02595      -0.0681 
  866000   -3397.5966    659.74664   -4057.3432    747.84605    14703.384   -19513.546    304.02655   -755.99146    1.0010488        0.567      0.16824      0.02598     -0.06804 
  867000   -3378.2278    625.99764   -4004.2254    785.49742    14717.232   -19510.875    288.47423    719.40595     1.011985       0.5665      0.16788      0.02601     -0.06798 
  868000   -3330.1003    686.71337   -4016.8137    781.43085     14708.22   -19511.601    316.45344    459.15292   0.99447465        0.566      0.16752      0.02604     -0.06792 
  869000   -3373.1443    632.39673   -4005.5411    768.07004    14734.431   -19512.831    291.42308   -376.60372   0.97907107       0.5655      0.16716      0.02607     -0.06786 
  870000   -3419.3586     626.7582   -4046.1169     778.1806     14685.97    -19513.42    288.82471    99.258406    1.0091368        0.565       0.1668       0.0261      -0.0678 
  871000   -3347.7949    662.08035   -4009.8753    747.13601    14752.373   -19515.531    305.10197    -419.0728   0.99197711       0.5645      0.16644      0.02613     -0.06774 
  872000   -3371.6166    640.17704   -4011.7937    706.62212    14791.888   -19514.244    295.00842   -800.27699     1.009634        0.564      0.16608      0.02616     -0.06768 
  873000   -3296.7832    684.23121   -3981.0144     759.3245    14768.662   -19513.746    315.30961    716.61066     1.017613       0.5635      0.16572      0.02619     -0.06762 
  874000   -3399.0166    637.89603   -4036.9127    799.78521    14673.384   -19514.257    293.95728    974.26382    1.0153567        0.563      0.16536      0.02622     -0.06756 
  875000   -3404.1086    637.24528   -4041.3539    758.66585    14708.619   -19512.734     293.6574   -138.21111    1.0009258       0.5625        0.165      0.02625      -0.0675 
  876000    -3439.208    634.78228   -4073.9903    815.72985    14621.559   -19513.991    292.52239    540.77831   0.99289422        0.562      0.16464      0.02628     -0.06744 
  877000   -3365.8927    674.78575   -4040.6785     840.6803    14629.379   -19513.729    310.95691    1455.4203   0.99854614       0.5615      0.16428      0.02631     -0.06738 
  878000   -3394.6029    662.15104   -4056.7539    730.28003    14723.254   -19514.213    305.13455   -1123.4353   0.98957446        0.561      0.16392      0.02634     -0.06732 
  879000   -3381.1976    664.81978   -4046.0174    763.40927    14699.998    -19514.86    306.36437   -219.37737    1.0060401       0.5605      0.16356      0.02637     -0.06726 
  880000   -3355.7241    653.09004   -4008.8141     771.0402     14726.11   -19508.932    300.95903    506.11934    1.0163328         0.56       0.1632       0.0264      -0.0672 
  881000   -3344.0388    641.39867   -3985.4375    797.61258    14725.358   -19512.726    295.57138    1115.3369    1.0049008       0.5595      0.16284      0.02643     -0.06714 
  882000   -3349.0809    672.17374   -4021.2546    703.01615    14786.081   -19515.633    309.75324    -1477.821    0.9963599        0.559      0.16248      0.02646     -0.06708 
  883000   -3414.0931    625.47723   -4039.5703     759.3178    14711.903    -19513.58    288.23441   -267.31972   0.99500371       0.5585      0.16212      0.02649     -0.06702 
  884000   -3389.5354    644.81679   -4034.3522    765.71893    14708.075   -19513.479    297.14653    94.509775   0.98962084        0.558      0.16176      0.02652     -0.06696 
  885000   -3375.3011    663.66168   -4038.9628    739.12342    14733.596   -19516.237    305.83069   -440.52518    1.0017701       0.5575       0.1614      0.02655      -0.0669 
  886000   -3392.4477    650.07728    -4042.525    798.40559    14667.661    -19512.48    299.57068    11.049173   0.97745304        0.557      0.16104      0.02658     -0.06684 
  887000    -3391.013    631.83242   -4022.8454    849.56622    14637.321   -19514.386    291.16303    1734.7476   0.99146402       0.5565      0.16068      0.02661     -0.06678 
  888000   -3426.4591    648.72173   -4075.1808    820.49433    14616.292   -19516.047    298.94601    978.29861    1.0131554        0.556      0.16032      0.02664     -0.06672 
  889000   -3466.8232     641.0508    -4107.874    759.63622    14643.445   -19515.128    295.41107    -1240.868    0.9917962       0.5555      0.15996      0.02667     -0.06666 
  890000   -3391.3363    649.27842   -4040.6147    767.57023    14703.228   -19515.078    299.20255    182.56843    1.0021345        0.555       0.1596       0.0267      -0.0666 
  891000   -3385.1326    621.21861   -4006.3512    764.61873    14739.376   -19514.876    286.27194   -42.137116   0.99458966       0.5545      0.15924      0.02673     -0.06654 
  892000   -3387.0978    632.19143   -4019.2892    767.98058    14724.648   -19515.647    291.32847   -24.153191    1.0033043        0.554      0.15888      0.02676     -0.06648 
  893000   -3378.7402    654.54716   -4033.2874    749.37446    14728.638    -19514.67    301.63051   -250.62539    1.0041821       0.5535      0.15852      0.02679     -0.06642 
  894000   -3372.5987    654.69876   -4027.2975    709.62751    14772.056   -19513.127    301.70037   -1191.1906   0.99210163        0.553      0.15816      0.02682     -0.06636 
  895000   -3395.6685    628.94264   -4024.6111    773.05985    14708.873   -19512.022    289.83135    71.025417    1.0083005       0.5525       0.1578      0.02685      -0.0663 
  896000   -3403.1823    655.17306   -4058.3554    802.89871    14647.303   -19513.041    301.91893    522.87736    1.0029736        0.552      0.15744      0.02688     -0.06624 
  897000   -3365.4054    645.15462     -4010.56    749.59543    14750.332   -19515.899    297.30221    160.18893    1.0100774       0.5515      0.15708      0.02691     -0.06618 
  898000   -3418.5687    631.83828    -4050.407     753.5852    14706.272     -19515.2    291.16572   -209.76411    1.0348917        0.551      0.15672      0.02694     -0.06612 
  899000   -3338.8001     637.9865   -3976.7866    736.03743     14797.08   -19513.462    293.99897   -192.37707    1.0101925       0.5505      0.15636      0.02697     -0.06606 
  900000   -3385.4964    621.05451   -4006.5509    699.40603    14804.526   -19514.753    286.19632   -725.45141    1.0184426         0.55        0.156        0.027       -0.066 
  901000   -3291.3527    683.39818   -3974.7509    760.40651    14774.325    -19514.11    314.92572    499.43728    1.0143669       0.5495      0.15564      0.02703     -0.06594 
  902000   -3358.3104    678.39972   -4036.7101    741.97798     14727.25   -19511.025    312.62232   -318.93384    1.0114994        0.549      0.15528      0.02706     -0.06588 
  903000   -3417.9081    631.63692    -4049.545    752.42008    14709.401   -19515.181    291.07294   -270.81326    1.0140673       0.5485      0.15492      0.02709     -0.06582 
  904000   -3388.9284    662.97107   -4051.8995    800.78431    14654.629   -19511.314    305.51244    1380.0949    1.0452096        0.548      0.15456      0.02712     -0.06576 
  905000    -3303.111    666.68849   -3969.7995     685.9555    14853.838   -19513.351    307.22551   -810.23535     1.022396       0.5475       0.1542      0.02715      -0.0657 
  906000   -3416.0456    655.52181   -4071.5674    758.71929    14677.965   -19512.325    302.07965   -479.11074    1.0242094        0.547      0.15384      0.02718     -0.06564 
  907000   -3301.9076    678.89342    -3980.801    704.21989    14823.646   -19512.777    312.84983   -727.16385    1.0101158       0.5465      0.15348      0.02721     -0.06558 
  908000   -3350.6178    656.70863   -4007.3264    716.35512     14782.08   -19511.885    302.62656   -1041.0047   0.98399618        0.546      0.15312      0.02724     -0.06552 
  909000   -3364.8872    621.39971   -3986.2869    752.86785    14768.805   -19512.362    286.35539    -257.4548    1.0029771       0.5455      0.15276      0.02727     -0.06546 
  910000   -3317.2262    656.57167   -3973.7979    769.83083    14760.014   -19510.902    302.56345    684.63532   0.99941124        0.545       0.1524       0.0273      -0.0654 
  911000   -3339.0146    620.62655   -3959.6411    728.89179    14818.203   -19513.206     285.9991   -304.82993   0.99073523       0.5445      0.15204      0.02733     -0.06534 
  912000   -3394.9228    634.35889   -4029.2817    754.36155    14724.171   -19511.672    292.32728   -357.40441   0.99837724        0.544      0.15168      0.02736     -0.06528 
  913000   -3340.7465    652.93904   -3993.6855    739.05984    14774.145   -19512.869    300.88945    274.33688    1.0277574       0.5435      0.15132      0.02739     -0.06522 
  914000   -3309.7487    677.30939   -3987.0581    711.63175    14804.298   -19508.471    312.11987   -853.32343   0.99079635        0.543      0.15096      0.02742     -0.06516 
  915000    -3314.332    708.53627   -4022.8683    770.12651    14716.096   -19513.272    326.50994    518.12747    1.0236277       0.5425       0.1506      0.02745      -0.0651 
  916000   -3346.4464     643.7322   -3990.1786    808.96035    14709.702   -19514.327    296.64672    1165.7326    1.0107742        0.542      0.15024      0.02748     -0.06504 
  917000   -3359.2742    626.00004   -3985.2743     684.3509    14838.924   -19514.731    288.47533   -1181.5111   0.99796706       0.5415      0.14988      0.02751     -0.06498 
  918000    -3288.622    664.04105    -3952.663     721.9818    14832.884   -19512.575    306.00551    166.63536    1.0136879        0.541      0.14952      0.02754     -0.06492 
  919000   -3361.6391    663.82644   -4025.4656      727.526    14754.942   -19512.942    305.90661   -831.03595    1.0128433       0.5405      0.14916      0.02757     -0.06486 
  920000    -3388.312    656.07342   -4044.3854    803.42277    14661.149   -19513.133    302.33384    126.87915   0.98318799         0.54       0.1488       0.0276      -0.0648 
  921000   -3310.2963    658.61976   -3968.9161    720.59543    14821.558   -19515.284    303.50725   -459.90742   0.99128387       0.5395      0.14844      0.02763     -0.06474 
  922000   -3395.7635    649.59901   -4045.3625    805.40941    14657.755   -19514.282    299.35028    1151.1474    1.0251878        0.539      0.14808      0.02766     -0.06468 
  923000   -3304.2866    668.82552   -3973.1121    728.17745    14807.812   -19513.632     308.2103   -572.54969   0.99387584       0.5385      0.14772      0.02769     -0.06462 
  924000   -3391.5007    658.99124    -4050.492    741.87694    14715.107   -19513.502    303.67844   -545.79947   0.98677119        0.538      0.14736      0.02772     -0.06456 
  925000   -3403.1035    634.96068   -4038.0642    781.89653    14686.912   -19511.044     292.6046   -283.13008   0.99179846       0.5375        0.147      0.02775      -0.0645 
  926000   -3310.8079     661.0988   -3971.9067    775.08374    14761.292   -19512.509    304.64965    100.55414   0.98456627        0.537      0.14664      0.02778     -0.06444 
  927000   -3420.8215    611.37668   -4032.1982    822.72773     14658.31   -19516.163    281.73655    1246.3286    1.0123396       0.5365      0.14628      0.02781     -0.06438 
  928000   -3412.2956    648.35454   -4060.6501    728.88836    14718.664   -19513.832     298.7768   -650.83511    1.0193409        0.536      0.14592      0.02784     -0.06432 
  929000   -3320.1012    687.86321   -4007.9644    764.00354    14736.741   -19513.485    316.98331    470.31141    1.0153198       0.5355      0.14556      0.02787     -0.06426 
  930000   -3408.9279    609.31813   -4018.2461    788.83262    14698.183   -19510.759    280.78792     613.7899    1.0114571        0.535       0.1452       0.0279      -0.0642 
  931000   -3360.3875    679.57374   -4039.9612    793.27103    14677.305   -19513.469    313.16333    922.43945    1.0197418       0.5345      0.14484      0.02793     -0.06414 
  932000   -3341.0982    653.50212   -3994.6003    714.56429    14798.346   -19513.088    301.14892   -851.45342    1.0039675        0.534      0.14448      0.02796     -0.06408 
  933000   -3327.7716    673.69419   -4001.4657    751.50241    14755.281   -19513.954     310.4539    152.82809    1.0038212       0.5335      0.14412      0.02799     -0.06402 
  934000   -3411.1014    628.82165   -4039.9231    780.79145    14686.663   -19511.834    289.77559    333.34249    1.0209835        0.533      0.14376      0.02802     -0.06396 
  935000   -3379.4707    651.33746   -4030.8082    756.43891    14720.757   -19514.257     300.1514   -121.74986    1.0115737       0.5325       0.1434      0.02805      -0.0639 
  936000   -3336.2594    638.39013   -3974.6495     755.7244    14773.451   -19510.474    294.18497    21.757915    1.0035821        0.532      0.14304      0.02808     -0.06384 
  937000   -3427.5253    630.09313   -4057.6185    763.51383    14686.996   -19514.092    290.36152   -478.15012      1.00869       0.5315      0.14268      0.02811     -0.06378 
  938000   -3368.6039    667.48598   -4036.0899    759.14459    14713.224   -19513.534    307.59301   -384.15648    0.9942014        0.531      0.14232      0.02814     -0.06372 
  939000   -3438.7726    648.89668   -4087.6692    726.21862    14696.493   -19515.897    299.02663   -664.74961    1.0377841       0.5305      0.14196      0.02817     -0.06366 
  940000   -3354.9614    674.88411   -4029.8455     776.0483    14701.583   -19512.176    311.00225    163.16475    1.0223327         0.53       0.1416       0.0282      -0.0636 
  941000   -3325.2849    657.09633   -3982.3812    732.99373    14793.761   -19512.747    302.80522   -238.57933    1.0139586       0.5295      0.14124      0.02823     -0.06354 
  942000   -3360.2121    633.73454   -3993.9467    726.68708    14785.744   -19511.376    292.03957   -356.29615    1.0236135        0.529      0.14088      0.02826     -0.06348 
  943000   -3401.9574    650.06965   -4052.0271    739.24131    14717.595   -19512.856    299.56716   -370.53495    1.0239862       0.5285      0.14052      0.02829     -0.06342 
  944000    -3337.071    688.92697   -4025.9979    747.47357    14735.916   -19513.574    317.47352    151.50637    1.0290793        0.528      0.14016      0.02832     -0.06336 
  945000   -3418.0053    641.51452   -4059.5198    776.40655    14673.262   -19513.147    295.62476    439.47315    1.0197148       0.5275       0.1398      0.02835      -0.0633 
  946000    -3364.254    627.69166   -3991.9457    728.65274    14786.011   -19511.118    289.25487   -560.03134   0.99647608        0.527      0.13944      0.02838     -0.06324 
  947000   -3431.0327    642.59211   -4073.6248    784.90719      14650.8   -19513.124    296.12134   -162.19146    1.0086987       0.5265      0.13908      0.02841     -0.06318 
  948000   -3342.9075    665.03031   -4007.9378    749.22936    14751.335   -19514.061    306.46138     19.42162    1.0113948        0.526      0.13872      0.02844     -0.06312 
  949000   -3311.5868    648.63526   -3960.2221    696.02544     14852.52   -19512.696    298.90617   -844.11265   0.99575065       0.5255      0.13836      0.02847     -0.06306 
  950000    -3353.834    665.65946   -4019.4934    721.91697    14766.395   -19510.821    306.75131   -575.48503    1.0125192        0.525        0.138       0.0285       -0.063 
  951000   -3385.3688    641.84276   -4027.2115    779.83777    14702.274   -19513.503    295.77602   -213.07191   0.99185408       0.5245      0.13764      0.02853     -0.06294 
  952000   -3406.3715    611.84157   -4018.2131    801.23307    14685.083   -19509.794    281.95078    1168.0861    1.0217922        0.524      0.13728      0.02856     -0.06288 
  953000   -3322.3417     672.2678   -3994.6095    717.52807    14798.078   -19514.636    309.79659   -438.01207    1.0093334       0.5235      0.13692      0.02859     -0.06282 
  954000   -3310.6334    664.12265   -3974.7561    708.22119    14825.389   -19513.076    306.04311   -469.39159    1.0038256        0.523      0.13656      0.02862     -0.06276 
  955000   -3329.3889    627.29643   -3956.6854    730.48263    14822.647   -19513.302    289.07274    330.49163    1.0022669       0.5225       0.1362      0.02865      -0.0627 
  956000    -3291.426    664.14323   -3955.5693    687.15493     14862.98   -19512.038     306.0526   -907.00688   0.99691798        0.522      0.13584      0.02868     -0.06264 
  957000   -3390.6446    651.30813   -4041.9528    745.89624    14720.042    -19511.11    300.13789    -630.4286    1.0064801       0.5215      0.13548      0.02871     -0.06258 
  958000   -3329.7549     673.4997   -4003.2546    718.06585    14788.116   -19512.831    310.36428   -463.04475    1.0086368        0.521      0.13512      0.02874     -0.06252 
  959000   -3427.5476    631.72907   -4059.2766    781.17931    14667.589   -19512.638     291.1154    92.431756    1.0135718       0.5205      0.13476      0.02877     -0.06246 
  960000    -3394.508    641.94698    -4036.455    741.04157    14731.792   -19511.772    295.82405   -34.822018    1.0261091         0.52       0.1344       0.0288      -0.0624 
  961000   -3336.5544    676.40687   -4012.9612     805.7172    14687.817   -19511.238    311.70397    1029.4902    1.0182041       0.5195      0.13404      0.02883     -0.06234 
  962000   -3333.4275     631.4256   -3964.8531    772.48265    14770.764    -19512.67    290.97555    873.02055     1.025609        0.519      0.13368      0.02886     -0.06228 
  963000   -3350.7193    642.81386   -3993.5331    737.65102    14778.071   -19514.681    296.22353   -357.41097     1.006491       0.5185      0.13332      0.02889     -0.06222 
  964000   -3355.5237    652.84343   -4008.3671    798.97798    14700.938   -19512.671    300.84539    1041.3405    1.0173184        0.518      0.13296      0.02892     -0.06216 
  965000   -3361.3627    669.95471   -4031.3174    765.56379    14712.575   -19514.503    308.73066    114.08832    1.0137905       0.5175       0.1326      0.02895      -0.0621 
  966000   -3429.3192    619.44409   -4048.7633    734.57814    14728.008   -19513.892     285.4542   -355.52609    1.0227714        0.517      0.13224      0.02898     -0.06204 
  967000   -3323.2842     657.9198    -3981.204    720.11789    14807.502   -19512.889     303.1847   -758.90803   0.99122784       0.5165      0.13188      0.02901     -0.06198 
  968000   -3351.9542    630.96105   -3982.9153    752.87022    14773.592   -19513.699    290.76148    247.23867    0.9922087        0.516      0.13152      0.02904     -0.06192 
  969000   -3415.6328    679.60881   -4095.2417    834.68795    14580.784   -19514.986     313.1795    1111.0394    1.0345569       0.5155      0.13116      0.02907     -0.06186 
  970000   -3420.7678    652.37835   -4073.1461    746.84779    14691.137    -19514.99    300.63107   -717.19052    1.0061381        0.515       0.1308       0.0291      -0.0618 
  971000   -3385.1109    654.75455   -4039.8655    770.28724    14697.891   -19513.089    301.72608     687.0719    1.0359248       0.5145      0.13044      0.02913     -0.06174 
  972000    -3336.738    684.24697    -4020.985    781.78918    14705.088   -19512.746    315.31687    722.39021    1.0141217        0.514      0.13008      0.02916     -0.06168 
  973000   -3349.6607    633.53805   -3983.1988    767.91438    14757.035    -19512.39    291.94902    560.53653    1.0099305       0.5135      0.12972      0.02919     -0.06162 
  974000   -3289.5224    696.97116   -3986.4936    754.41058      14765.6   -19512.592    321.18047    117.19482   0.99306447        0.513      0.12936      0.02922     -0.06156 
  975000   -3339.3302     656.7331   -3996.0633    745.92138    14768.088    -19514.23    302.63784    -319.6939   0.99007067       0.5125        0.129      0.02925      -0.0615 
  976000   -3389.6249    644.10352   -4033.7284    718.09589    14755.927   -19512.701    296.81783   -1132.4005    1.0032864        0.512      0.12864      0.02928     -0.06144 
  977000   -3423.7226    638.60087   -4062.3235    750.66358    14697.429   -19513.609    294.28209   -357.55914    1.0111915       0.5115      0.12828      0.02931     -0.06138 
  978000   -3354.8538    666.97456   -4021.8284    734.91899    14750.648   -19511.933    307.35734   -239.03125    1.0163142        0.511      0.12792      0.02934     -0.06132 
  979000   -3362.4654     631.8822   -3994.3476    750.57731    14763.117     -19512.3    291.18597   -144.20105   0.99079924       0.5105      0.12756      0.02937     -0.06126 
  980000   -3407.2019    639.54644   -4046.7483    799.88124    14662.971   -19513.123    294.71783    949.61216     1.030138         0.51       0.1272       0.0294      -0.0612 
  981000   -3385.8492     680.2202   -4066.0694    756.96279    14686.409   -19512.963    313.46124    50.884344    1.0269749       0.5095      0.12684      0.02943     -0.06114 
  982000   -3369.9798    637.51584   -4007.4957    723.80084    14776.585   -19512.442    293.78208   -848.34291   0.99220763        0.509      0.12648      0.02946     -0.06108 
  983000   -3350.9354    668.59751   -4019.5329    766.06783    14724.574   -19512.654    308.10523    265.93912    1.0151805       0.5085      0.12612      0.02949     -0.06102 
  984000    -3461.653    604.56523   -4066.2182    742.28697    14700.309   -19514.535    278.59767   -644.04431    1.0258113        0.508      0.12576      0.02952     -0.06096 
  985000   -3403.5717    636.00367   -4039.5754    749.94394    14721.756   -19514.853    293.08524   -198.89567    1.0081763       0.5075       0.1254      0.02955      -0.0609 
  986000   -3333.3122    686.20836   -4019.5205    777.45573    14712.821   -19515.152    316.22072    499.38083    1.0059181        0.507      0.12504      0.02958     -0.06084 
  987000   -3302.6997    653.39813   -3956.0978    658.94122    14892.127   -19513.349    301.10101   -1838.6489   0.98108412       0.5065      0.12468      0.02961     -0.06078 
  988000   -3390.3605    645.90302   -4036.2635    728.83327     14741.76   -19513.035    297.64708   -623.11529    1.0050626        0.506      0.12432      0.02964     -0.06072 
  989000   -3354.7534    636.10979   -3990.8632    718.22471    14796.393     -19511.9    293.13414   -388.07909    1.0037707       0.5055      0.12396      0.02967     -0.06066 
  990000   -3409.6186    649.10676   -4058.7254    730.21849    14721.884   -19515.406    299.12345   -1205.9215    1.0015011        0.505       0.1236       0.0297      -0.0606 
  991000   -3348.6164    657.19102   -4005.8074    729.81486    14769.497   -19509.211    302.84886   -771.00323   0.98287432       0.5045      0.12324      0.02973     -0.06054 
  992000   -3342.2906    636.27102   -3978.5616    762.47627    14764.169   -19511.405    293.20844    139.65594   0.99197553        0.504      0.12288      0.02976     -0.06048 
  993000   -3430.2542    597.33493   -4027.5891     740.5648    14743.171   -19513.858    275.26578   -802.67886   0.98724111       0.5035      0.12252      0.02979     -0.06042 
  994000   -3353.6325    642.12571   -3995.7582    736.21135     14777.59   -19513.693    295.90641    -291.9742    1.0177292        0.503      0.12216      0.02982     -0.06036 
  995000   -3336.6462    641.16014   -3977.8063    744.16824    14784.156   -19511.223    295.46146   -325.25113   0.99981474       0.5025       0.1218      0.02985      -0.0603 
  996000   -3370.3399    654.73913    -4025.079    715.59282    14767.814   -19513.758    301.71897   -992.42893    1.0080285        0.502      0.12144      0.02988     -0.06024 
  997000   -3407.8294    651.62729   -4059.4566    793.90197     14655.54   -19513.687    300.28496    36.501859    1.0055869       0.5015      0.12108      0.02991     -0.06018 
  998000   -3360.2879    679.77039   -4040.0583    737.96317    14727.366   -19512.433    313.25395   -404.68061     1.019442        0.501      0.12072      0.02994     -0.06012 
  999000    -3285.961    694.17221   -3980.1332    768.79356    14755.556   -19510.687    319.89065     409.7073   0.99313778       0.5005      0.12036      0.02997     -0.06006 
 1000000   -3395.6398    633.82119    -4029.461    749.44671    14730.143   -19513.506     292.0795   -499.47794    1.0029344          0.5         0.12         0.03        -0.06 
 1001000   -3344.1356    664.90172   -4009.0373    716.37703    14781.078   -19512.996    306.40213   -959.21348    1.0182762       0.4995      0.11964      0.03003     -0.05994 
 1002000   -3383.2757    665.67912   -4048.9548    817.07837    14641.724   -19513.642    306.76037    649.76643    1.0057248        0.499      0.11928      0.03006     -0.05988 
 1003000   -3336.7595    661.81865   -3998.5781    757.84109    14752.017   -19513.502    304.98138   -43.025479   0.99737999       0.4985      0.11892      0.03009     -0.05982 
 1004000   -3343.6289    672.44318   -4016.0721     791.3048     14699.32   -19512.259    309.87741    194.24246   0.99400117        0.498      0.11856      0.03012     -0.05976 
 1005000   -3357.6264    669.75412   -4027.3805    747.88532    14732.558   -19511.869    308.63823   -156.62047   0.99932153       0.4975       0.1182      0.03015      -0.0597 
 1006000   -3382.3861    632.17054   -4014.5566    786.50916    14706.081     -19512.8    291.31884    988.92584    1.0276795        0.497      0.11784      0.03018     -0.05964 
 1007000   -3371.7422    643.36609   -4015.1083    725.08612    14766.675   -19511.266    296.47801   -613.49361    1.0188539       0.4965      0.11748      0.03021     -0.05958 
 1008000   -3405.9068    612.28632   -4018.1931    739.12001    14753.733    -19515.14    282.15573   -95.082125    1.0196589        0.496      0.11712      0.03024     -0.05952 
 1009000   -3354.3142    663.77783    -4018.092    771.93276    14718.965   -19512.462    305.88421    320.62508    1.0104086       0.4955      0.11676      0.03027     -0.05946 
 1010000   -3343.1114    675.41359    -4018.525     734.7802    14754.811   -19513.719    311.24624   -643.16651    1.0013657        0.495       0.1164       0.0303      -0.0594 
 1011000   -3350.4188    674.06746   -4024.4862    771.67515    14711.286   -19512.958    310.62591   -16.240119   0.99876894       0.4945      0.11604      0.03033     -0.05934 
 1012000   -3454.6562     630.9075   -4085.5637    815.80603    14606.579   -19511.691     290.7368    692.95211    1.0136353        0.494      0.11568      0.03036     -0.05928 
 1013000   -3370.4354    653.61004   -4024.0454    760.66959    14724.203   -19512.264    301.19866    508.47033    1.0199356       0.4935      0.11532      0.03039     -0.05922 
 1014000   -3324.4516    654.12826   -3978.5798    784.33348    14745.168   -19513.644    301.43747    743.87758    1.0062012        0.493      0.11496      0.03042     -0.05916 
 1015000   -3304.2091     652.2256   -3956.4347    724.54085    14824.424   -19513.352    300.56068   -179.58564    1.0029006       0.4925       0.1146      0.03045      -0.0591 
 1016000   -3351.3525    648.78023   -4000.1327    764.66305    14739.454   -19511.105    298.97297    139.38574    1.0018334        0.492      0.11424      0.03048     -0.05904 
 1017000   -3407.4531    600.96825   -4008.4214    756.74668    14743.533   -19513.569     276.9401   -358.38699     1.003156       0.4915      0.11388      0.03051     -0.05898 
 1018000   -3356.4309    651.01276   -4007.4436     762.2793    14735.746     -19511.1    300.00177    512.42773    1.0286621        0.491      0.11352      0.03054     -0.05892 
 1019000   -3428.1565    623.29008   -4051.4466    787.14819    14669.526   -19513.852    287.22652    601.95312    1.0220169       0.4905      0.11316      0.03057     -0.05886 
 1020000   -3397.7935    658.06597   -4055.8595    761.14597     14691.94    -19513.46    303.25206   -155.09149    1.0071842         0.49       0.1128       0.0306      -0.0588 
 1021000   -3350.5771    649.68014   -4000.2573    737.12598    14768.615   -19511.568    299.38767   -57.063952    1.0165199       0.4895      0.11244      0.03063     -0.05874 
 1022000   -3370.0826    643.19043    -4013.273    803.89721    14689.235   -19511.587    296.39706    1172.3485    1.0266925        0.489      0.11208      0.03066     -0.05868 
 1023000   -3415.0507    612.28056   -4027.3313    786.13112    14689.989   -19509.491    282.15308    758.61907    1.0247558       0.4885      0.11172      0.03069     -0.05862 
 1024000   -3344.3715    668.65474   -4013.0263     682.2305    14811.512   -19511.026     308.1316   -1600.6784     1.006767        0.488      0.11136      0.03072     -0.05856 
 1025000   -3396.9756    640.32333    -4037.299    783.24747    14688.368   -19513.918    295.07583    630.04144    1.0301311       0.4875        0.111      0.03075      -0.0585 
 1026000   -3371.7432    646.03555   -4017.7787    784.53281    14701.389   -19509.151    297.70816    559.82658    1.0141333        0.487      0.11064      0.03078     -0.05844 
 1027000   -3346.4195    700.11286   -4046.5324    831.33177    14631.596   -19513.728    322.62824    1245.3611    1.0045075       0.4865      0.11028      0.03081     -0.05838 
 1028000   -3365.4857    665.62869   -4031.1144    786.14567    14691.642   -19514.353    306.73713    181.52505   0.99757646        0.486      0.10992      0.03084     -0.05832 
 1029000    -3319.074    676.35841   -3995.4324    746.44682    14764.503   -19511.267    311.68163    71.108091    1.0066735       0.4855      0.10956      0.03087     -0.05826 
 1030000   -3414.3714    672.00353   -4086.3749     806.8648     14612.08    -19510.43    309.67481    561.56357    1.0087082        0.485       0.1092       0.0309      -0.0582 
 1031000   -3408.6903    638.96329   -4047.6536    815.61431    14643.519   -19512.686     294.4491    822.07793    1.0204209       0.4845      0.10884      0.03093     -0.05814 
 1032000   -3400.4457    639.62592   -4040.0716    822.95696    14643.186   -19512.075    294.75445    1120.4565     1.004845        0.484      0.10848      0.03096     -0.05808 
 1033000    -3405.591    625.61405   -4031.2051    804.16611    14669.197   -19511.496    288.29746    728.40752    1.0137119       0.4835      0.10812      0.03099     -0.05802 
 1034000   -3403.9977    648.93458   -4052.9322      757.404    14696.261   -19512.353     299.0441   -322.65192     1.010857        0.483      0.10776      0.03102     -0.05796 
 1035000   -3348.0256    642.52575   -3990.5514    805.61685    14710.942   -19513.826    296.09076    1459.9556    1.0128482       0.4825       0.1074      0.03105      -0.0579 
 1036000   -3306.4702    693.50576    -3999.976    724.63276    14780.994   -19511.531    319.58353   -488.91571   0.99443984        0.482      0.10704      0.03108     -0.05784 
 1037000   -3363.2869    677.41384   -4040.7007    799.81038    14668.573   -19514.055      312.168    542.35129    1.0013149       0.4815      0.10668      0.03111     -0.05778 
 1038000   -3335.4113     659.9987     -3995.41    769.79053    14742.013   -19512.185     304.1427    158.82009    1.0003844        0.481      0.10632      0.03114     -0.05772 
 1039000   -3354.4217    629.76565   -3984.1874    727.91921    14795.202   -19511.118    290.21061   -450.39438     1.006706       0.4805      0.10596      0.03117     -0.05766 
 1040000   -3340.4972     691.3944   -4031.8916     698.4384    14779.642   -19515.152    318.61057   -272.37793    1.0461891         0.48       0.1056       0.0312      -0.0576 
 1041000   -3406.5182     595.4146   -4001.9328    757.23174    14748.164    -19514.11    274.38085   -166.15694   0.99153699       0.4795      0.10524      0.03123     -0.05754 
 1042000   -3332.9824    650.32712   -3983.3095    703.24958    14819.325    -19510.54    299.68581   -1098.4071   0.99881929        0.479      0.10488      0.03126     -0.05748 
 1043000   -3348.3441    633.61118   -3981.9553    708.81383     14817.57   -19512.016    291.98272   -446.37107    1.0060787       0.4785      0.10452      0.03129     -0.05742 
 1044000   -3389.2798    648.33769   -4037.6175    728.68017    14741.466   -19514.029    298.76904   -463.21448    1.0310832        0.478      0.10416      0.03132     -0.05736 
 1045000    -3298.184    661.44312   -3959.6272    760.97894    14783.978   -19511.534    304.80832    396.23613    1.0096321       0.4775       0.1038      0.03135      -0.0573 
 1046000   -3323.7451    665.89481   -3989.6399    735.12424    14780.437   -19510.829    306.85977   -127.12925    1.0076397        0.477      0.10344      0.03138     -0.05724 
 1047000   -3349.4939    656.68507   -4006.1789    765.54169    14732.183   -19511.369     302.6157    255.73585    1.0116887       0.4765      0.10308      0.03141     -0.05718 
 1048000    -3397.824    649.69231   -4047.5163    780.11629    14677.905   -19511.374    299.39328   -16.791396     1.005943        0.476      0.10272      0.03144     -0.05712 
 1049000   -3358.2121    634.34693   -3992.5591    705.05405    14808.123   -19513.855    292.32177   -1334.4115   0.98412492       0.4755      0.10236      0.03147     -0.05706 
 1050000   -3258.0819    702.85146   -3960.9334    715.45997    14828.924   -19512.967    323.89025   -74.365064    1.0147283        0.475        0.102       0.0315       -0.057 
 1051000   -3340.4823    673.90829   -4014.3906    810.54646    14682.178   -19513.051    310.55256    1095.9767     1.013074       0.4745      0.10164      0.03153     -0.05694 
 1052000   -3349.9209    648.59997   -3998.5209    703.85529    14804.726   -19514.063     298.8899   -1114.0877    1.0082743        0.474      0.10128      0.03156     -0.05688 
 1053000   -3385.3952     647.0907   -4032.4859    767.80554    14705.707   -19511.488     298.1944    101.84708    1.0125599       0.4735      0.10092      0.03159     -0.05682 
 1054000   -3326.5892    652.19211   -3978.7813    787.23048    14738.936   -19512.748    300.54524    744.67209   0.98858295        0.473      0.10056      0.03162     -0.05676 
 1055000   -3374.4912    626.48744   -4000.9786    747.18758     14756.68   -19513.405    288.69993    35.537445    1.0076515       0.4725       0.1002      0.03165      -0.0567 
 1056000   -3356.4655     642.9659   -3999.4314    768.91117    14738.925   -19512.716    296.29359    627.12176    1.0281268        0.472      0.09984      0.03168     -0.05664 
 1057000   -3281.4259    672.81085   -3954.2368    794.12567    14755.511   -19511.411    310.04684    976.91884    1.0004109       0.4715      0.09948      0.03171     -0.05658 
 1058000   -3393.1976    657.92652   -4051.1241    774.28384    14682.616   -19512.658    303.18779    704.81356    1.0334849        0.471      0.09912      0.03174     -0.05652 
 1059000   -3424.0399    628.75833   -4052.7982    802.02804     14654.76   -19514.073    289.74641    995.49154    1.0339761       0.4705      0.09876      0.03177     -0.05646 
 1060000   -3321.1225    670.58294   -3991.7054    775.06804    14742.151   -19513.433    309.02017    744.90854    1.0290876         0.47       0.0984       0.0318      -0.0564 
 1061000   -3431.5297    619.14082   -4050.6705    726.28031    14729.798   -19512.953    285.31444   -743.12377    1.0092925       0.4695      0.09804      0.03183     -0.05634 
 1062000   -3441.6753    633.15254   -4074.8278    756.53185    14681.327   -19515.881    291.77137   -947.38723   0.99070273        0.469      0.09768      0.03186     -0.05628 
 1063000   -3373.4385    632.70617   -4006.1447    778.95082    14721.479   -19513.181    291.56567    500.93482    1.0053451       0.4685      0.09732      0.03189     -0.05622 
 1064000   -3417.6569    598.16508    -4015.822     729.2076    14760.852   -19513.336    275.64834   -838.60334   0.98964414        0.468      0.09696      0.03192     -0.05616 
 1065000   -3366.8793     660.3271   -4027.2064    746.14681    14728.744    -19510.35    304.29404   -273.23699    1.0063608       0.4675       0.0966      0.03195      -0.0561 
 1066000   -3334.0986    659.43535    -3993.534    760.68521     14751.57   -19512.156     303.8831     160.5771   0.99987282        0.467      0.09624      0.03198     -0.05604 
 1067000   -3396.3481    621.19597   -4017.5441    754.68856    14734.311   -19512.745    286.26151    -332.7688   0.98605419       0.4665      0.09588      0.03201     -0.05598 
 1068000   -3373.4669    642.08497   -4015.5519    750.57049     14736.89   -19509.579    295.88764   -361.30695   0.99491855        0.466      0.09552      0.03204     -0.05592 
 1069000   -3414.5438    620.93147   -4035.4753    734.44757    14734.803    -19512.09    286.13962   -896.54871   0.99256933       0.4655      0.09516      0.03207     -0.05586 
 1070000   -3392.6763    646.80301   -4039.4793    786.33103    14681.954   -19513.548    298.06182    33.375674   0.98756016        0.465       0.0948       0.0321      -0.0558 
 1071000   -3413.9911    615.60838   -4029.5995    795.50103    14683.287   -19514.796    283.68661    563.92588    1.0096321       0.4645      0.09444      0.03213     -0.05574 
 1072000   -3374.5022     638.1257   -4012.6279    752.21382    14741.436   -19511.409    294.06311    297.66181    1.0283443        0.464      0.09408      0.03216     -0.05568 
 1073000   -3397.6109    643.90103    -4041.512    719.35665    14747.615   -19513.986    296.72452    -747.2515    1.0204583       0.4635      0.09372      0.03219     -0.05562 
 1074000   -3343.1625    661.52522   -4004.6877    721.70499    14781.054    -19513.93    304.84616   -988.12955   0.99129196        0.463      0.09336      0.03222     -0.05556 
 1075000   -3370.6541    644.77425   -4015.4283    841.96874    14646.128   -19510.761    297.12692    1442.7982    1.0036777       0.4625        0.093      0.03225      -0.0555 
 1076000   -3313.6769    685.63138   -3999.3083     754.3698    14749.935    -19510.12    315.95483    1.5898019    1.0050142        0.462      0.09264      0.03228     -0.05544 
 1077000    -3393.341    625.64849   -4018.9895    705.08143    14783.511   -19513.431    288.31333   -1276.4846    1.0051075       0.4615      0.09228      0.03231     -0.05538 
 1078000   -3300.5484    655.04448   -3955.5929    734.02371    14816.251   -19512.757    301.85968     145.1193     1.018399        0.461      0.09192      0.03234     -0.05532 
 1079000   -3338.9398    648.10578   -3987.0456    750.69351    14770.544   -19513.302    298.66217    -99.96249      1.00264       0.4605      0.09156      0.03237     -0.05526 
 1080000    -3328.732    642.15587   -3970.8878    774.05403    14763.672   -19512.809    295.92031    670.47124    1.0131777         0.46       0.0912       0.0324      -0.0552 
 1081000   -3394.2927    642.77478   -4037.0675    799.10645    14668.664   -19512.005    296.20552     380.7955    0.9991943       0.4595      0.09084      0.03243     -0.05514 
 1082000   -3405.9899    606.60793   -4012.5978    749.73418     14740.62   -19510.315    279.53899   -247.10718   0.99666283        0.459      0.09048      0.03246     -0.05508 
 1083000   -3349.1758    625.78796   -3974.9638    716.84056    14819.638   -19513.901     288.3776   -579.90303    1.0007393       0.4585      0.09012      0.03249     -0.05502 
 1084000   -3271.6658    701.66067   -3973.3264    776.03033    14760.291   -19513.781     323.3415    599.72893   0.99730156        0.458      0.08976      0.03252     -0.05496 
 1085000   -3417.0292    632.56505   -4049.5942    786.37661    14669.581   -19512.296    291.50064    652.13537     1.016127       0.4575       0.0894      0.03255      -0.0549 
 1086000   -3419.3373    638.58177   -4057.9191    810.38077    14639.359   -19510.965    294.27328    603.66557    1.0027826        0.457      0.08904      0.03258     -0.05484 
 1087000    -3345.553    649.58105   -3995.1341    781.27238    14729.821   -19512.244    299.34201    343.09183   0.98240074       0.4565      0.08868      0.03261     -0.05478 
 1088000   -3378.3987    635.30095   -4013.6996    798.36362    14693.952   -19510.235     292.7614    922.11927    1.0099053        0.456      0.08832      0.03264     -0.05472 
 1089000   -3345.2357    668.49482   -4013.7305    820.17523    14672.417   -19510.776    308.05791    1440.1644    1.0199811       0.4555      0.08796      0.03267     -0.05466 
 1090000   -3355.2423    630.49403   -3985.7363    782.57654    14739.918   -19513.872    290.54627    394.45897    1.0077418        0.455       0.0876       0.0327      -0.0546 
 1091000   -3346.3596    657.59825   -4003.9578    753.16127    14748.332   -19511.573    303.03652   -181.14975   0.99750093       0.4545      0.08724      0.03273     -0.05454 
 1092000   -3397.6524    625.22295   -4022.8754    830.10788    14654.605   -19512.733    288.11723    1274.3215     1.009917        0.454      0.08688      0.03276     -0.05448 
 1093000   -3321.9134     675.7945   -3997.7079    778.19357    14729.823   -19511.879    311.42177    54.555606   0.98396717       0.4535      0.08652      0.03279     -0.05442 
 1094000    -3381.066    623.82079   -4004.8868    729.01302    14775.151   -19514.313    287.47108   -773.76559    1.0017066        0.453      0.08616      0.03282     -0.05436 
 1095000   -3287.7114    663.37415   -3951.0856    789.17968    14765.434   -19513.513    305.69819     1445.634    1.0186029       0.4525       0.0858      0.03285      -0.0543 
 1096000    -3297.809     693.7712   -3991.5802    775.65898    14739.268   -19512.469    319.70585    79.813954   0.98168867        0.452      0.08544      0.03288     -0.05424 
 1097000   -3357.7679    668.20098   -4025.9689    843.66388    14636.864   -19509.585     307.9225    1614.8718    1.0135203       0.4515      0.08508      0.03291     -0.05418 
 1098000   -3351.7761     679.4014   -4031.1775    764.84554    14714.598   -19514.474    313.08391   -145.74746    1.0034038        0.451      0.08472      0.03294     -0.05412 
 1099000   -3466.9846    626.84463   -4093.8292    791.07512    14625.159   -19514.225    288.86454   -84.548467    1.0129447       0.4505      0.08436      0.03297     -0.05406 
 1100000   -3379.4078    622.95757   -4002.3654    726.21215    14778.977   -19513.096    287.07329   -620.76438     1.001975         0.45        0.084        0.033       -0.054 
 1101000   -3413.6454    638.61285   -4052.2583    840.09359     14614.72   -19511.254    294.28761    1412.7838    1.0139119       0.4495      0.08364      0.03303     -0.05394 
 1102000    -3362.853    661.37012   -4024.2231    782.41008    14701.161   -19512.314    304.77468    293.26512   0.99642683        0.449      0.08328      0.03306     -0.05388 
 1103000   -3368.1226    651.03417   -4019.1567    753.36618    14734.021    -19513.17    300.01164   -433.65492   0.99072932       0.4485      0.08292      0.03309     -0.05382 
 1104000   -3276.5893    690.54648   -3967.1357    712.31068    14827.082   -19510.436    318.21983   -587.33007    0.9980456        0.448      0.08256      0.03312     -0.05376 
 1105000   -3320.5464    664.57684   -3985.1232    757.95942    14761.324   -19511.716    306.25241    88.533589   0.99139741       0.4475       0.0822      0.03315      -0.0537 
 1106000   -3334.0934     655.0715   -3989.1649    793.88546    14726.429   -19513.728    301.87213    969.68264   0.99725994        0.447      0.08184      0.03318     -0.05364 
 1107000   -3312.0089    641.43582   -3953.4447    780.23478    14772.463   -19510.348    295.58849    1030.1269    1.0074291       0.4465      0.08148      0.03321     -0.05358 
 1108000   -3340.6115    640.54114   -3981.1527    747.13867    14780.336   -19512.916     295.1762   -17.415919     1.001951        0.446      0.08112      0.03324     -0.05352 
 1109000   -3353.8338    642.53813   -3996.3719    781.22865    14725.534    -19510.36    296.09647    269.56592   0.99835244       0.4455      0.08076      0.03327     -0.05346 
 1110000   -3359.4198     643.9041   -4003.3239    757.70158    14750.066   -19514.599    296.72594    293.93602      1.00703        0.445       0.0804       0.0333      -0.0534 
 1111000   -3350.9576    653.86838    -4004.826    848.99437    14649.966   -19509.022    301.31771    1810.2927     1.005213       0.4445      0.08004      0.03333     -0.05334 
 1112000   -3433.4842    625.12122   -4058.6054    786.04478    14664.491   -19513.113    288.07035    59.329547    1.0029053        0.444      0.07968      0.03336     -0.05328 
 1113000   -3337.9082     668.4481   -4006.3563    770.40261    14726.764   -19509.688    308.03638    171.99053    0.9968373       0.4435      0.07932      0.03339     -0.05322 
 1114000   -3437.0572    635.65502   -4072.7122    773.36779    14664.856   -19513.667    292.92457   -186.16014     1.007392        0.443      0.07896      0.03342     -0.05316 
 1115000   -3323.9943    651.97173    -3975.966    736.59504    14792.212    -19511.31    300.44369   -360.88609    1.0036394       0.4425       0.0786      0.03345      -0.0531 
 1116000   -3391.4182    627.74093   -4019.1591    697.02352    14787.394    -19510.85    289.27757   -1171.2063    1.0038257        0.442      0.07824      0.03348     -0.05304 
 1117000   -3373.4173    670.22319   -4043.6405    718.44227    14742.538   -19511.046    308.85438   -511.07659    1.0153494       0.4415      0.07788      0.03351     -0.05298 
 1118000   -3401.9088    635.16257   -4037.0714    789.21661    14682.136   -19512.584    292.69764    404.31821    1.0122921        0.441      0.07752      0.03354     -0.05292 
 1119000    -3392.753    636.44035   -4029.1934    736.25675    14742.684   -19512.482    293.28647   -487.70601    1.0075443       0.4405      0.07716      0.03357     -0.05286 
 1120000   -3300.1617    645.55431    -3945.716    716.55531    14846.164   -19511.894    297.48639    63.104706     1.015191         0.44       0.0768       0.0336      -0.0528 
 1121000   -3407.8986    645.02622   -4052.9248    796.84178    14657.021   -19510.981    297.24304     694.6889    1.0180323       0.4395      0.07644      0.03363     -0.05274 
 1122000   -3389.9011    653.53938   -4043.4405    747.62748    14717.477   -19513.475     301.1661   -160.42528    1.0167496        0.439      0.07608      0.03366     -0.05268 
 1123000   -3370.6646    665.52071   -4036.1853    755.87604    14715.994   -19513.386    306.68737    131.78328    1.0283867       0.4385      0.07572      0.03369     -0.05262 
 1124000   -3320.6243    653.90477   -3974.5291    729.89502    14801.712   -19511.628    301.33448   -248.40794    1.0104584        0.438      0.07536      0.03372     -0.05256 
 1125000   -3405.0974    631.02299   -4036.1204    792.22714    14682.443   -19514.892    290.79002    600.93359    1.0256017       0.4375        0.075      0.03375      -0.0525 
 1126000   -3327.4142    675.20933   -4002.6235    708.44701    14795.138   -19510.531    311.15211   -763.54479    1.0071871        0.437      0.07464      0.03378     -0.05244 
 1127000   -3322.3287    667.90426    -3990.233    759.34052    14756.881   -19511.266    307.78577    29.649185     1.002527       0.4365      0.07428      0.03381     -0.05238 
 1128000    -3377.855    631.56748   -4009.4225    814.10478    14681.998   -19510.966    291.04094    1287.0617    1.0138876        0.436      0.07392      0.03384     -0.05232 
 1129000   -3436.4863    638.01189   -4074.4982    785.99917    14648.344   -19512.167    294.01067    409.21287     1.030479       0.4355      0.07356      0.03387     -0.05226 
 1130000   -3372.5342    648.94005   -4021.4742     709.4989    14777.675   -19511.521    299.04662   -993.21995   0.99232838        0.435       0.0732       0.0339      -0.0522 
 1131000   -3386.7047    651.97542   -4038.6802    751.49255    14716.619   -19512.401    300.44539   -338.50955    1.0155204       0.4345      0.07284      0.03393     -0.05214 
 1132000   -3427.0839    633.33762   -4060.4215    767.53141    14678.043   -19511.287    291.85666   -43.911508    1.0287167        0.434      0.07248      0.03396     -0.05208 
 1133000   -3410.1724    651.53454    -4061.707    741.02278    14705.429   -19513.446    300.24222   -519.70553    1.0142272       0.4335      0.07212      0.03399     -0.05202 
 1134000   -3326.8795    638.68054   -3965.5601    814.98667    14726.215   -19509.854     294.3188    1724.4996    1.0124909        0.433      0.07176      0.03402     -0.05196 
 1135000   -3329.5543    626.12402   -3955.6783    743.65085    14802.896   -19507.695    288.53246    318.74137    1.0075002       0.4325       0.0714      0.03405      -0.0519 
 1136000   -3382.8206    631.10565   -4013.9263    721.22577    14771.928   -19512.477    290.82811   -137.48719    1.0145741        0.432      0.07104      0.03408     -0.05184 
 1137000   -3390.5367    625.88512   -4016.4218    759.96469    14728.998    -19511.74    288.42237   -329.11372   0.99217238       0.4315      0.07068      0.03411     -0.05178 
 1138000   -3420.5826    635.03249   -4055.6151    783.45697    14669.186   -19512.901    292.63769    62.012893    1.0110181        0.431      0.07032      0.03414     -0.05172 
 1139000   -3397.3054    636.96981   -4034.2752    750.83067    14722.372    -19513.27    293.53046   -472.21082    1.0081884       0.4305      0.06996      0.03417     -0.05166 
 1140000   -3389.8641     652.9276   -4042.7917    796.58475    14669.304   -19511.674    300.88417    340.46995    1.0047105         0.43       0.0696       0.0342      -0.0516 
 1141000   -3436.5823    633.16166    -4069.744    787.95144    14646.109   -19510.534    291.77557   -244.09025    1.0040582       0.4295      0.06924      0.03423     -0.05154 
 1142000   -3408.5032    677.85311   -4086.3563    771.23531    14649.343   -19512.764    312.37043   -182.38133    1.0302331        0.429      0.06888      0.03426     -0.05148 
 1143000   -3412.0712    647.75535   -4059.8266    712.20075    14736.225   -19511.426    298.50068   -1009.9981    1.0138085       0.4285      0.06852      0.03429     -0.05142 
 1144000   -3496.5162    617.85721   -4114.3734    822.70747     14573.19    -19512.82    284.72293    435.74481    1.0107782        0.428      0.06816      0.03432     -0.05136 
 1145000   -3439.0934    627.00249   -4066.0959    802.85871    14638.388   -19513.006    288.93728    562.41039    1.0038962       0.4275       0.0678      0.03435      -0.0513 
 1146000   -3380.3222    668.01731   -4048.3395    778.69831    14680.648    -19510.74    307.83786    499.38595    1.0193285        0.427      0.06744      0.03438     -0.05124 
 1147000   -3379.3397     631.3973    -4010.737    711.33713     14786.61   -19513.973    290.96251   -1140.4963   0.99617298       0.4265      0.06708      0.03441     -0.05118 
 1148000   -3395.0756    648.60743    -4043.683    782.72741    14683.885   -19513.834    298.89334    728.24344    1.0234899        0.426      0.06672      0.03444     -0.05112 
 1149000     -3372.27    628.94909   -4001.2191    744.93684    14763.856   -19512.731    289.83432   -99.942927    1.0122078       0.4255      0.06636      0.03447     -0.05106 
 1150000    -3361.637    638.01861   -3999.6556    782.62991     14725.46   -19512.207    294.01376    641.43883    1.0185218        0.425        0.066       0.0345       -0.051 
 1151000   -3339.9352    640.56771   -3980.5029    776.56161    14748.212   -19509.961    295.18845     453.8416    1.0058168       0.4245      0.06564      0.03453     -0.05094 
 1152000   -3395.8872     644.5892   -4040.4764    772.19128    14694.278   -19511.269    297.04165     208.0888    1.0106101        0.424      0.06528      0.03456     -0.05088 
 1153000   -3393.7006    641.94366   -4035.6442    745.79286    14729.449   -19513.919    295.82252   -355.13034    1.0067242       0.4235      0.06492      0.03459     -0.05082 
 1154000   -3370.3199     682.6443   -4052.9642     723.4499    14731.444   -19512.008    314.57832    -879.8591    1.0102665        0.423      0.06456      0.03462     -0.05076 
 1155000   -3252.1637    696.10016   -3948.2639     679.7575    14879.357   -19510.492    320.77909   -1329.7194   0.97860273       0.4225       0.0642      0.03465      -0.0507 
 1156000   -3388.3007    611.95309   -4000.2537    714.80733    14792.872    -19512.17    282.00217   -935.83208    1.0029907        0.422      0.06384      0.03468     -0.05064 
 1157000   -3382.2871    647.87702   -4030.1641    701.59357    14774.985    -19510.75    298.55675   -1806.3793   0.98280687       0.4215      0.06348      0.03471     -0.05058 
 1158000   -3360.9353    634.36127   -3995.2966     701.6653    14808.775   -19510.999    292.32838   -924.37455    1.0107446        0.421      0.06312      0.03474     -0.05052 
 1159000   -3408.8277    631.16109   -4039.9888    771.14369    14694.562   -19510.963    290.85366    47.977212    1.0056768       0.4205      0.06276      0.03477     -0.05046 
 1160000     -3376.74    637.20304    -4013.943    739.12268    14755.084    -19513.54    293.63793    -580.9848   0.99884772         0.42       0.0624       0.0348      -0.0504 
 1161000   -3342.1904    675.17612   -4017.3665    792.23177    14699.076       -19513    311.13681    1154.5247    1.0288865       0.4195      0.06204      0.03483     -0.05034 
 1162000    -3411.129    622.11657   -4033.2456    738.42501    14738.533   -19513.475    286.68574   -451.26943    1.0194867        0.419      0.06168      0.03486     -0.05028 
 1163000    -3327.251    657.53267   -3984.7837    717.68315    14804.831   -19512.114     303.0063   -247.23171    1.0278959       0.4185      0.06132      0.03489     -0.05022 
 1164000   -3339.1084    671.20475   -4010.3132    760.52268    14737.127   -19512.356    309.30671   -94.593896   0.98901514        0.418      0.06096      0.03492     -0.05016 
 1165000   -3404.3068    639.66968   -4043.9765    777.39145    14685.839   -19510.923    294.77462    249.07757    1.0173027       0.4175       0.0606      0.03495      -0.0501 
 1166000   -3387.7953    642.97593   -4030.7712     755.6201    14722.354   -19513.231    296.29822    115.16237    1.0191215        0.417      0.06024      0.03498     -0.05004 
 1167000   -3317.5446    662.97942    -3980.524    748.50255    14778.286   -19511.982    305.51629    68.253837    1.0005803       0.4165      0.05988      0.03501     -0.04998 
 1168000     -3325.98    646.34012   -3972.3201    766.56324    14767.215    -19510.57    297.84851    432.79406    1.0040452        0.416      0.05952      0.03504     -0.04992 
 1169000   -3371.5845    666.05975   -4037.6443    725.50468    14741.241   -19509.822    306.93578   -1415.6972   0.97796371       0.4155      0.05916      0.03507     -0.04986 
 1170000   -3423.6537    624.31398   -4047.9676    771.30308    14691.117   -19513.397    287.69835     49.76076     1.004889        0.415       0.0588       0.0351      -0.0498 
 1171000   -3405.3435    628.75738   -4034.1008     814.3447    14660.328    -19513.49    289.74598    787.18736   0.98914921       0.4145      0.05844      0.03513     -0.04974 
 1172000   -3329.9631    672.90108   -4002.8642    800.05002    14705.068   -19511.613    310.08842     852.0473   0.99612725        0.414      0.05808      0.03516     -0.04968 
 1173000   -3379.4547    665.37772   -4044.8324    752.89258    14711.743   -19514.399    306.62148   -364.29871   0.99554857       0.4135      0.05772      0.03519     -0.04962 
 1174000   -3333.1247    652.61292   -3985.7376     734.1442    14789.236   -19513.605    300.73916   -121.72371    1.0111915        0.413      0.05736      0.03522     -0.04956 
 1175000   -3372.8814    655.87374   -4028.7552    780.43941    14696.187   -19510.541    302.24183    115.49262   0.99710138       0.4125        0.057      0.03525      -0.0495 
 1176000   -3382.1179    632.57883   -4014.6967    708.74565    14787.011   -19513.985    291.50699   -1170.1196   0.99292466        0.412      0.05664      0.03528     -0.04944 
 1177000   -3378.5765    651.53703   -4030.1135     777.3987    14702.504    -19513.48    300.24337    20.215813     1.006584       0.4115      0.05628      0.03531     -0.04938 
 1178000   -3350.0057    667.75795   -4017.7637    870.08683    14620.365   -19511.001    307.71834    2416.9109    1.0218366        0.411      0.05592      0.03534     -0.04932 
 1179000   -3378.6866     652.0301   -4030.7167    832.20065    14647.155   -19514.166    300.47059    1670.6419    1.0221107       0.4105      0.05556      0.03537     -0.04926 
 1180000    -3413.412    643.29394   -4056.7059    737.98242    14713.429   -19512.062    296.44476   -1116.3438   0.98089843         0.41       0.0552       0.0354      -0.0492 
 1181000   -3396.3593    665.75275   -4062.1121    802.69441    14641.397   -19512.323     306.7943   -75.794664   0.97715834       0.4095      0.05484      0.03543     -0.04914 
 1182000   -3290.2658    663.99527   -3954.2611    745.64058    14807.378   -19511.082    305.98441   -243.85024   0.97159025        0.409      0.05448      0.03546     -0.04908 
 1183000   -3350.8042    626.51333   -3977.3175    728.49256    14797.784   -19510.399    288.71187   -536.93256   0.99254074       0.4085      0.05412      0.03549     -0.04902 
 1184000   -3379.3269    665.74482   -4045.0717    790.68165    14669.631   -19511.431    306.79065    356.27459   0.99938923        0.408      0.05376      0.03552     -0.04896 
 1185000   -3388.1588    659.29464   -4047.4535    787.37713    14673.971   -19512.258    303.81826    323.04371    1.0119782       0.4075       0.0534      0.03555      -0.0489 
 1186000   -3361.4178    646.08595   -4007.5037    786.00005    14712.467   -19510.745    297.73138    402.52444   0.99517103        0.407      0.05304      0.03558     -0.04884 
 1187000   -3357.3245    661.58194   -4018.9064    756.34273    14731.415   -19510.944     304.8723   -44.003554    1.0103931       0.4065      0.05268      0.03561     -0.04878 
 1188000   -3412.1442    629.41376   -4041.5579    819.52721    14647.167   -19512.708    290.04845    1070.6591    1.0182445        0.406      0.05232      0.03564     -0.04872 
 1189000   -3368.3453    666.37148   -4034.7168    771.59644    14703.198   -19513.022    307.07943    43.528102     1.010073       0.4055      0.05196      0.03567     -0.04866 
 1190000   -3337.9555    634.77829   -3972.7338    721.14484     14812.37   -19510.223    292.52055   -396.02259     1.017795        0.405       0.0516       0.0357      -0.0486 
 1191000   -3395.9779    661.37934   -4057.3573    825.23346    14626.142   -19512.583    304.77893    1380.4458    1.0194078       0.4045      0.05124      0.03573     -0.04854 
 1192000   -3338.8026    692.16536   -4030.9679    803.49211    14676.073   -19513.735    318.96584     1075.239    1.0212156        0.404      0.05088      0.03576     -0.04848 
 1193000   -3364.0997    641.98217   -4006.0819    754.25587    14747.652   -19512.202    295.84027    114.42898    1.0214028       0.4035      0.05052      0.03579     -0.04842 
 1194000   -3331.8232      703.118   -4034.9412    761.52562    14712.697   -19512.325    324.01307    70.933487    1.0019034        0.403      0.05016      0.03582     -0.04836 
 1195000    -3371.111    652.29032   -4023.4013    777.83955    14706.933   -19512.551     300.5905    507.37345    1.0045058       0.4025       0.0498      0.03585      -0.0483 
 1196000   -3335.4372     675.9876   -4011.4248     780.4674    14714.843   -19511.259    311.51076    496.00151    1.0091946        0.402      0.04944      0.03588     -0.04824 
 1197000   -3383.6609    668.75027   -4052.4111    700.64368    14756.425   -19514.566    308.17563   -1391.0985    1.0072959       0.4015      0.04908      0.03591     -0.04818 
 1198000   -3331.1013    661.06615   -3992.1675    802.63762    14713.804   -19510.452     304.6346    1150.2095    1.0067332        0.401      0.04872      0.03594     -0.04812 
 1199000   -3316.8676    654.34798   -3971.2156    758.97905    14780.314   -19514.171    301.53872    560.13244    1.0064988       0.4005      0.04836      0.03597     -0.04806 
 1200000   -3369.7568    614.42123    -3984.178    767.93041    14757.715   -19514.156    283.13955    201.43403    1.0001397          0.4        0.048        0.036       -0.048 
 1201000   -3333.0499    660.40845   -3993.4583    775.81687    14738.964   -19511.828    304.33152    610.74897    1.0035506       0.3995      0.04764      0.03603     -0.04794 
 1202000   -3296.1512     669.3461   -3965.4973     739.0982    14802.795   -19511.312     308.4502    120.25631    1.0086844        0.399      0.04728      0.03606     -0.04788 
 1203000   -3377.0741    618.47867   -3995.5528    754.41456    14759.567   -19512.978    285.00931   -103.55006   0.99737046       0.3985      0.04692      0.03609     -0.04782 
 1204000   -3359.9156    632.20812   -3992.1237    745.68149    14769.295   -19512.147    291.33616   -195.78156      1.01021        0.398      0.04656      0.03612     -0.04776 
 1205000   -3320.8617    658.30355   -3979.1652    796.18257    14733.132   -19512.747    303.36154     1054.104   0.99861912       0.3975       0.0462      0.03615      -0.0477 
 1206000   -3375.4387    665.05325   -4040.4919    764.16349     14699.53   -19508.415    306.47196    -68.84407   0.99545516        0.397      0.04584      0.03618     -0.04764 
 1207000   -3296.5415    667.75268   -3964.2942    700.54041    14840.168   -19510.127    307.71591   -1384.2157   0.96911525       0.3965      0.04548      0.03621     -0.04758 
 1208000   -3366.3284    651.99072   -4018.3191    786.83086    14703.521   -19512.408    300.45244    169.86175   0.99033353        0.396      0.04512      0.03624     -0.04752 
 1209000   -3361.9293    644.99696   -4006.9262     781.2643    14720.664   -19512.385    297.22955    660.99972    1.0028082       0.3955      0.04476      0.03627     -0.04746 
 1210000    -3433.346    644.75399      -4078.1    773.10279    14657.121   -19513.144    297.11759   -334.47576    1.0038294        0.395       0.0444       0.0363      -0.0474 
 1211000   -3399.5833    650.30489   -4049.8882    839.88523    14616.159    -19510.53    299.67557    1252.2991    1.0179179       0.3945      0.04404      0.03633     -0.04734 
 1212000   -3312.7036    644.73588   -3957.4395    630.98607    14918.574   -19511.032    297.10924   -2537.6715   0.98183169        0.394      0.04368      0.03636     -0.04728 
 1213000   -3382.3145    629.13374   -4011.4483    732.30763    14761.172    -19510.02    289.91941   -754.99847    0.9970624       0.3935      0.04332      0.03639     -0.04722 
 1214000   -3353.7614    639.83196   -3993.5934    759.72199    14753.514   -19510.773     294.8494    215.38028   0.99631596        0.393      0.04296      0.03642     -0.04716 
 1215000   -3380.3723    637.62436   -4017.9967    732.00725    14757.626   -19511.566    293.83209   -623.99653    1.0175648       0.3925       0.0426      0.03645      -0.0471 
 1216000   -3418.2037    637.71761   -4055.9213    760.37413    14692.647   -19512.565    293.87506   -621.52511    1.0011853        0.392      0.04224      0.03648     -0.04704 
 1217000   -3346.8521    638.29399   -3985.1461    751.01713    14770.125   -19511.515    294.14067   -190.58311    0.9852785       0.3915      0.04188      0.03651     -0.04698 
 1218000   -3302.7751      646.669   -3949.4441    793.49662    14764.806   -19511.143    298.00006    1082.5574    1.0054288        0.391      0.04152      0.03654     -0.04692 
 1219000    -3330.475    681.42487   -4011.8999    744.10988    14750.463   -19510.059    314.01638   -508.75308    1.0008201       0.3905      0.04116      0.03657     -0.04686 
 1220000   -3325.9178       654.69   -3980.6078    833.53604    14691.571   -19510.021    301.69633    1685.8258    1.0074094         0.39       0.0408       0.0366      -0.0468 
 1221000   -3353.5088    652.30994   -4005.8187    787.56159    14709.523   -19509.547    300.59954    184.95106   0.99952646       0.3895      0.04044      0.03663     -0.04674 
 1222000   -3293.4576    672.89437   -3966.3519    736.34388    14805.912   -19514.957    310.08533   -329.25845   0.99545609        0.389      0.04008      0.03666     -0.04668 
 1223000   -3359.1621    653.97041   -4013.1325    789.49023    14703.331    -19510.83    301.36473    538.16015   0.99717194       0.3885      0.03972      0.03669     -0.04662 
 1224000   -3358.0132    639.57788   -3997.5911    817.21562    14692.377   -19512.657    294.73232    1332.1211    1.0039825        0.388      0.03936      0.03672     -0.04656 
 1225000   -3313.5418    632.17099   -3945.7128    772.74358    14789.403   -19513.784    291.31905    935.81374     1.002719       0.3875        0.039      0.03675      -0.0465 
 1226000   -3357.0588    629.31688   -3986.3757    754.19667    14767.293   -19511.683    290.00381     -203.021     1.001753        0.387      0.03864      0.03678     -0.04644 
 1227000   -3367.4588    642.40982   -4009.8687    771.88865    14726.553   -19511.376    296.03734   -62.096283   0.97459771       0.3865      0.03828      0.03681     -0.04638 
 1228000   -3348.9797    673.17957   -4022.1593    796.06249    14691.113   -19512.814    310.21675    696.42946   0.99667903        0.386      0.03792      0.03684     -0.04632 
 1229000   -3362.0276    660.81326   -4022.8409    751.10322    14730.361   -19509.332    304.51807   -578.19243   0.97567392       0.3855      0.03756      0.03687     -0.04626 
 1230000   -3400.1865    606.94344   -4007.1299    802.01107     14697.01   -19511.822    279.69361    502.69494   0.99756837        0.385       0.0372       0.0369      -0.0462 
 1231000     -3349.41     678.9978   -4028.4078    787.25356    14691.125   -19512.028    312.89793    740.50807     1.022343       0.3845      0.03684      0.03693     -0.04614 
 1232000   -3339.0475      676.136   -4015.1835     783.0138    14706.605   -19511.733    311.57914    727.10064    1.0141779        0.384      0.03648      0.03696     -0.04608 
 1233000   -3346.7071    653.13578   -3999.8429     714.7155    14794.245   -19512.897    300.98011   -614.23852    1.0039152       0.3835      0.03612      0.03699     -0.04602 
 1234000   -3400.2333    618.46819   -4018.7015    747.04556    14737.703   -19510.684    285.00448   -446.45425   0.99301111        0.383      0.03576      0.03702     -0.04596 
 1235000   -3438.8581    638.87798    -4077.736    749.63809    14681.197   -19513.699    294.40978   -907.97228    1.0008259       0.3825       0.0354      0.03705      -0.0459 
 1236000   -3376.3925    631.98794   -4008.3804    736.76272    14761.178   -19512.526    291.23469   -845.82679   0.99816151        0.382      0.03504      0.03708     -0.04584 
 1237000   -3435.7722    639.29155   -4075.0637    812.28284    14621.994   -19513.358    294.60036    423.78416    1.0047572       0.3815      0.03468      0.03711     -0.04578 
 1238000   -3359.1745    646.95285   -4006.1273    737.86071    14761.543   -19510.069    298.13087   -473.93538    1.0029135        0.381      0.03432      0.03714     -0.04572 
 1239000    -3353.232    689.26333   -4042.4953    783.24445    14682.998   -19514.596    317.62852    472.29603   0.99768193       0.3805      0.03396      0.03717     -0.04566 
 1240000   -3390.6339    658.04595   -4048.6798     775.5306    14685.125    -19513.39    303.24283    79.466793    1.0091613         0.38       0.0336       0.0372      -0.0456 
 1241000   -3399.8212    653.63286   -4053.4541    791.74727    14663.997   -19512.641    301.20918    492.13044    1.0197424       0.3795      0.03324      0.03723     -0.04554 
 1242000   -3346.2206    662.44594   -4008.6666    775.92264    14722.217   -19511.852    305.27045    445.05077    1.0097789        0.379      0.03288      0.03726     -0.04548 
 1243000   -3345.9602    649.37934   -3995.3396    727.50408    14782.518   -19512.029    299.24906   -861.32898    1.0005241       0.3785      0.03252      0.03729     -0.04542 
 1244000   -3358.4411    666.81214   -4025.2532    791.93615    14691.483   -19512.805    307.28249    687.00685    1.0108158        0.378      0.03216      0.03732     -0.04536 
 1245000   -3381.7134    656.43521   -4038.1486    775.63662    14698.298   -19513.939    302.50056    460.61486    1.0299652       0.3775       0.0318      0.03735      -0.0453 
 1246000   -3386.0536    650.41739    -4036.471    743.69947    14729.922   -19512.853    299.72741   -565.12682   0.99236541        0.377      0.03144      0.03738     -0.04524 
 1247000   -3379.4694    682.31485   -4061.7842    755.56409    14689.485   -19513.048     314.4265   -220.06368    1.0267145       0.3765      0.03108      0.03741     -0.04518 
 1248000   -3296.0099    694.54692   -3990.5568    742.44255    14770.384    -19509.32    320.06332   -184.70339    1.0202915        0.376      0.03072      0.03744     -0.04512 
 1249000   -3423.7952    626.72823   -4050.5235    764.45641    14689.942   -19510.449     288.8109    75.139716    1.0166287       0.3755      0.03036      0.03747     -0.04506 
 1250000   -3375.9261    647.38584   -4023.3119    737.01174    14748.503    -19513.74     298.3304   -94.216003    1.0278397        0.375         0.03       0.0375       -0.045 
 1251000   -3369.5905    644.16145    -4013.752    720.16528    14773.853   -19513.227    296.84453   -789.34703    1.0119496       0.3745      0.02964      0.03753     -0.04494 
 1252000   -3352.7408    648.81811   -4001.5589    747.81918    14760.119   -19512.493    298.99043   -44.736746    1.0168625        0.374      0.02928      0.03756     -0.04488 
 1253000   -3346.1509    653.52571   -3999.6766    766.22338    14740.432   -19509.496     301.1598    829.22358     1.023998       0.3735      0.02892      0.03759     -0.04482 
 1254000   -3362.8044    639.23974   -4002.0442    745.09176    14762.161   -19512.794    294.57649   -73.970953    1.0106273        0.373      0.02856      0.03762     -0.04476 
 1255000   -3326.9527    635.97869   -3962.9314     697.4969    14843.629    -19508.07    293.07372   -1414.9539   0.98323736       0.3725       0.0282      0.03765      -0.0447 
 1256000   -3386.9829    622.87195   -4009.8549    806.22234    14688.551   -19509.214    287.03383     717.4298    1.0122445        0.372      0.02784      0.03768     -0.04464 
 1257000   -3422.3869    650.04748   -4072.4344    848.59566    14587.131   -19512.283    299.55695    1110.4628   0.99206497       0.3715      0.02748      0.03771     -0.04458 
 1258000   -3390.8466    650.36864   -4041.2152    805.89195    14661.169   -19513.553    299.70495    648.08776    1.0041643        0.371      0.02712      0.03774     -0.04452 
 1259000   -3345.9801    633.19767   -3979.1778    684.52628     14841.87   -19509.876    291.79216   -1508.1487   0.99352362       0.3705      0.02676      0.03777     -0.04446 
 1260000   -3415.0324     616.7426    -4031.775     774.7519    14700.637   -19512.362    284.20929    -349.0453   0.98685558         0.37       0.0264       0.0378      -0.0444 
 1261000   -3351.9714      661.152   -4013.1234    747.25823    14749.025    -19512.61    304.67417   -93.742711   0.98742184       0.3695      0.02604      0.03783     -0.04434 
 1262000   -3346.6665    640.95551    -3987.622    750.41411    14767.343   -19512.352    295.36716   -308.63304    1.0030269        0.369      0.02568      0.03786     -0.04428 
 1263000   -3372.2159    652.57265   -4024.7885    757.56284     14724.94   -19511.065     300.7206    144.92553    1.0151869       0.3685      0.02532      0.03789     -0.04422 
 1264000   -3371.0097    659.48858   -4030.4983    795.66347    14683.716     -19513.7    303.90763    1247.5384    1.0217515        0.368      0.02496      0.03792     -0.04416 
 1265000   -3374.3855    633.55039   -4007.9359    740.55815    14759.983   -19513.271    291.95471   -94.287221    1.0163291       0.3675       0.0246      0.03795      -0.0441 
 1266000    -3401.122    648.57962   -4049.7016    824.04354    14633.089    -19511.14    298.88052    1406.7012    1.0197819        0.367      0.02424      0.03798     -0.04404 
 1267000   -3378.7767    642.31617   -4021.0929    779.89486    14708.711   -19513.372    295.99418    518.39944    1.0066518       0.3665      0.02388      0.03801     -0.04398 
 1268000   -3352.3005    641.88705   -3994.1876    769.10451    14743.111   -19512.515    295.79643    697.17976    1.0181612        0.366      0.02352      0.03804     -0.04392 
 1269000   -3382.0841    633.53065   -4015.6147    759.98363    14731.655   -19511.238    291.94561    344.34053    1.0249489       0.3655      0.02316      0.03807     -0.04386 
 1270000   -3302.9299    660.75571   -3963.6856     704.2877    14836.931    -19511.68    304.49155   -261.30175    1.0299008        0.365       0.0228       0.0381      -0.0438 
 1271000   -3342.8717    669.06462   -4011.9363    769.19644    14722.655   -19510.815    308.32049    710.30995    1.0143278       0.3645      0.02244      0.03813     -0.04374 
 1272000   -3427.5229    651.50177   -4079.0247    789.80839    14637.466   -19510.491    300.22712    171.14188    1.0022985        0.364      0.02208      0.03816     -0.04368 
 1273000   -3377.6332    640.98153   -4018.6147    750.02338    14737.734   -19510.757    295.37915    -305.0162    1.0072763       0.3635      0.02172      0.03819     -0.04362 
 1274000   -3345.0354    659.09051   -4004.1259    687.50887    14814.335   -19511.987    303.72418   -1659.1356   0.99625365        0.363      0.02136      0.03822     -0.04356 
 1275000   -3381.9171    642.79591    -4024.713    771.38971    14709.469   -19511.127    296.21526   -233.15814   0.98360584       0.3625        0.021      0.03825      -0.0435 
 1276000   -3403.1799    633.15608    -4036.336    750.63954    14720.866    -19512.21      291.773   -285.90401    1.0033662        0.362      0.02064      0.03828     -0.04344 
 1277000   -3340.2619    660.51905    -4000.781    750.64816    14754.512   -19512.772    304.38249    1.6166108    1.0153035       0.3615      0.02028      0.03831     -0.04338 
 1278000   -3349.0557    671.33451   -4020.3902    785.40518    14702.029   -19513.283     309.3665    488.49465    1.0101742        0.361      0.01992      0.03834     -0.04332 
 1279000   -3419.2115    622.13399   -4041.3455    790.08054    14675.198   -19511.732    286.69376    499.14896    1.0132999       0.3605      0.01956      0.03837     -0.04326 
 1280000   -3355.8289    646.61201   -4002.4409    765.37545     14738.53    -19513.01     297.9738    346.24547    1.0080344         0.36       0.0192       0.0384      -0.0432 
 1281000   -3358.6265    671.70828   -4030.3348    738.24365    14739.202   -19513.589    309.53875   -152.59938    1.0220531       0.3595      0.01884      0.03843     -0.04314 
 1282000   -3445.4317    635.59009   -4081.0217    780.31221    14645.678   -19511.876    292.89465   -120.51132    1.0112511        0.359      0.01848      0.03846     -0.04308 
 1283000   -3344.8252        661.1   -4005.9252    769.71269    14731.927   -19511.637    304.65021   -242.52269   0.98107523       0.3585      0.01812      0.03849     -0.04302 
 1284000   -3384.7972    634.98053   -4019.7777    752.05342    14734.616   -19512.533    292.61375   -84.599102    1.0151863        0.358      0.01776      0.03852     -0.04296 
 1285000   -3380.8951    660.68142   -4041.5765    686.55813    14778.536   -19510.627    304.45731   -1387.7405    1.0184061       0.3575       0.0174      0.03855      -0.0429 
 1286000   -3293.3111     704.2568   -3997.5679    742.63861    14763.829   -19510.285    324.53786   -3.6467538    1.0016149        0.357      0.01704      0.03858     -0.04284 
 1287000   -3373.3976    682.19256   -4055.5902    780.96943    14673.073   -19513.149    314.37015   -26.056825   0.99638314       0.3565      0.01668      0.03861     -0.04278 
 1288000   -3323.3988    670.34854   -3993.7474    777.53589    14737.126   -19512.591    308.91215    701.56477    1.0102446        0.356      0.01632      0.03864     -0.04272 
 1289000   -3376.4935     636.2458   -4012.7393    758.49012    14736.148   -19513.366    293.19682    276.81704    1.0255769       0.3555      0.01596      0.03867     -0.04266 
 1290000   -3363.2532    668.38886    -4031.642    723.82682    14750.748   -19512.025    308.00908   -715.10089     1.010018        0.355       0.0156       0.0387      -0.0426 
 1291000   -3347.6349    659.89666   -4007.5316    760.52423    14733.819   -19507.448    304.09568     266.0393    1.0170364       0.3545      0.01524      0.03873     -0.04254 
 1292000   -3352.7368    643.01499   -3995.7518     785.5134    14725.413    -19511.96    296.31621    788.19063    1.0175746        0.354      0.01488      0.03876     -0.04248 
 1293000   -3346.7441    643.02804   -3989.7721    786.12512    14729.069   -19509.981    296.32223    465.02146    1.0110973       0.3535      0.01452      0.03879     -0.04242 
 1294000   -3339.8601    684.22155   -4024.0817    761.30972    14719.401   -19511.195    315.30515    369.59052    1.0235836        0.353      0.01416      0.03882     -0.04236 
 1295000    -3400.027    636.83227   -4036.8592    716.86591    14758.138       -19514    293.46707   -810.99388    1.0117449       0.3525       0.0138      0.03885      -0.0423 
 1296000   -3334.7808    634.47269   -3969.2535    702.46634     14835.21   -19511.747    292.37973   -631.18259    1.0066587        0.352      0.01344      0.03888     -0.04224 
 1297000   -3337.9178    651.62607   -3989.5438    705.25954     14811.88   -19511.936     300.2844    -983.9698    1.0054276       0.3515      0.01308      0.03891     -0.04218 
 1298000   -3334.0691       654.69   -3988.7591    732.78937    14783.664   -19512.028    301.69633   -627.37973   0.98560407        0.351      0.01272      0.03894     -0.04212 
 1299000   -3320.6089    634.33026   -3954.9391    739.02665    14806.771     -19506.5    292.31409    242.22698    1.0085896       0.3505      0.01236      0.03897     -0.04206 
 1300000    -3358.329    651.27866   -4009.6077    740.10122    14753.808   -19508.907    300.12431   -849.74311    0.9869675         0.35        0.012        0.039       -0.042 
 1301000   -3367.7122    622.22766   -3989.9399    719.66588    14800.614   -19513.746    286.73693   -758.09606   0.99191723       0.3495      0.01164      0.03903     -0.04194 
 1302000    -3380.979     643.1177   -4024.0967    834.03365    14645.634    -19509.53    296.36355    1473.2998     1.018569        0.349      0.01128      0.03906     -0.04188 
 1303000   -3288.5465    667.85099   -3956.3975    701.61327     14846.41   -19509.413    307.76122   -1219.4122   0.97707711       0.3485      0.01092      0.03909     -0.04182 
 1304000    -3297.918    673.36815   -3971.2861    765.89672     14767.32   -19509.955    310.30365    764.22528    1.0183729        0.348      0.01056      0.03912     -0.04176 
 1305000    -3397.286    641.19218   -4038.4782    827.50715    14638.092   -19510.028    295.47622    1172.5808     1.014681       0.3475       0.0102      0.03915      -0.0417 
 1306000    -3444.978    612.66234   -4057.6403    767.32288    14678.851   -19510.334    282.32901   -251.79654     1.010996        0.347      0.00984      0.03918     -0.04164 
 1307000   -3420.8568    605.83827   -4026.6951    718.36925    14760.304   -19509.549    279.18432    -800.4031    1.0189944       0.3465      0.00948      0.03921     -0.04158 
 1308000   -3410.6694    632.30088   -4042.9703    749.63296    14714.169   -19511.627     291.3789     100.2693    1.0348469        0.346      0.00912      0.03924     -0.04152 
 1309000   -3332.2832    678.15914   -4010.4424    728.91197    14768.127   -19511.992    312.51145   -260.62902    1.0353719       0.3455      0.00876      0.03927     -0.04146 
 1310000   -3399.3646    633.46589   -4032.8305    789.68206    14683.375   -19511.406    291.91577    954.97746    1.0224094        0.345       0.0084       0.0393      -0.0414 
 1311000   -3448.7472    648.52351   -4097.2708    826.98842    14584.622   -19512.685    298.85467    1050.5483    1.0368741       0.3445      0.00804      0.03933     -0.04134 
 1312000   -3366.8531    652.61826   -4019.4714    785.05847    14702.527   -19510.865    300.74162    549.05985    1.0143908        0.344      0.00768      0.03936     -0.04128 
 1313000   -3345.8207    677.17216   -4022.9929    777.79295    14707.102   -19514.011    312.05663    272.47222    1.0134209       0.3435      0.00732      0.03939     -0.04122 
 1314000    -3376.918    628.15195   -4005.0699    730.43188    14769.496   -19510.872    289.46698   -443.57079    1.0219011        0.343      0.00696      0.03942     -0.04116 
 1315000    -3342.334    656.35859   -3998.6926    769.05871    14732.016   -19506.997    302.46525   -72.227583    1.0021372       0.3425       0.0066      0.03945      -0.0411 
 1316000   -3358.3994    668.52877   -4026.9282    758.08181    14719.119   -19510.643    308.07356   -276.49976   0.99892591        0.342      0.00624      0.03948     -0.04104 
 1317000   -3371.7808     628.1446   -3999.9254    808.39607    14695.895   -19510.012    289.46359    1250.4433    1.0164593       0.3415      0.00588      0.03951     -0.04098 
 1318000    -3377.947     654.9466   -4032.8936    752.48263    14724.144   -19514.255    301.81458    -628.6701    0.9907272        0.341      0.00552      0.03954     -0.04092 
 1319000   -3407.7034    619.25878   -4026.9622    775.99271    14700.497   -19509.339     285.3688   -117.89938   0.97958476       0.3405      0.00516      0.03957     -0.04086 
 1320000    -3350.912    655.06013   -4005.9721    716.12105    14785.433   -19511.221    301.86689   -752.55045    1.0081714         0.34       0.0048       0.0396      -0.0408 
 1321000   -3337.3351    628.13316   -3965.4683    672.21899    14869.416   -19513.329    289.45832   -1421.1111   0.99582027       0.3395      0.00444      0.03963     -0.04074 
 1322000   -3334.8549    665.22508     -4000.08    777.37018    14728.734   -19511.214    306.55114    718.15049    1.0216481        0.339      0.00408      0.03966     -0.04068 
 1323000   -3365.4628    668.79889   -4034.2617    778.11248     14691.27   -19510.088    308.19803    332.58145    1.0153746       0.3385      0.00372      0.03969     -0.04062 
 1324000   -3349.1763    653.19631   -4002.3727    739.03242    14763.763   -19512.078      301.008   -39.360325    1.0219614        0.338      0.00336      0.03972     -0.04056 
 1325000   -3388.4892    639.52555   -4028.0148    786.27194    14690.108   -19512.031     294.7082    665.21427    1.0184821       0.3375        0.003      0.03975      -0.0405 
 1326000    -3378.286    658.46795    -4036.754    777.85963    14691.716   -19511.989    303.43729    318.99194    1.0207897        0.337      0.00264      0.03978     -0.04044 
 1327000   -3349.9657    682.61614   -4032.5819    818.47634    14654.782   -19511.296    314.56534    1197.4098    1.0202949       0.3365      0.00228      0.03981     -0.04038 
 1328000    -3389.731    638.75666   -4028.4877    712.86616      14763.1   -19510.496    294.35387   -796.69385      1.01227        0.336      0.00192      0.03984     -0.04032 
 1329000   -3363.9488    657.76091   -4021.7097    780.30834    14701.896   -19512.488    303.11148     693.2643       1.0206       0.3355      0.00156      0.03987     -0.04026 
 1330000   -3425.8536    626.29388   -4052.1475    758.78012    14692.936   -19510.289    288.61074   -633.18645    1.0035459        0.335       0.0012       0.0399      -0.0402 
 1331000   -3346.7447    670.27135    -4017.016    747.23393    14742.243   -19512.507    308.87657    43.050886     1.013659       0.3345      0.00084      0.03993     -0.04014 
 1332000   -3346.8602    666.06699   -4012.9272    781.22553    14712.981   -19512.118    306.93911     596.4624    1.0180862        0.334      0.00048      0.03996     -0.04008 
 1333000   -3382.2309    639.16724   -4021.3981    759.44293    14723.716   -19510.622    294.54308    323.83159    1.0238777       0.3335      0.00012      0.03999     -0.04002 
 1334000   -3391.9541    668.06479   -4060.0189    745.29548    14702.091   -19510.482    307.85974   -375.22648    1.0308559        0.333     -0.00024      0.04002     -0.03996 
 1335000     -3439.08    661.73362   -4100.8136    739.85811    14670.379   -19514.236    304.94219   -742.75651    1.0288111       0.3325      -0.0006      0.04005      -0.0399 
 1336000   -3374.6864    648.41294   -4023.0994    786.98308     14696.83   -19511.938    298.80371    541.80641    1.0046019        0.332     -0.00096      0.04008     -0.03984 
 1337000   -3304.8891    682.38637   -3987.2755    730.96774    14783.942   -19507.478    314.45946   -762.02473   0.97853496       0.3315     -0.00132      0.04011     -0.03978 
 1338000   -3336.9035    674.28346   -4011.1869    742.76183    14751.529   -19510.172    310.72545   -85.260065    1.0148967        0.331     -0.00168      0.04014     -0.03972 
 1339000   -3379.7917    645.29787   -4025.0896    775.08361    14704.443   -19511.802    297.36822    259.01913    1.0124559       0.3305     -0.00204      0.04017     -0.03966 
 1340000    -3331.956    669.57059   -4001.5265    785.80395    14716.437   -19510.407    308.55365    1141.5308     1.014974         0.33      -0.0024       0.0402      -0.0396 
 1341000   -3302.1148    652.02127   -3954.1361    762.01322    14788.757   -19512.042    300.46652    606.65499    1.0134062       0.3295     -0.00276      0.04023     -0.03954 
 1342000     -3368.53     642.2795   -4010.8095    701.57481    14796.072   -19513.101    295.97728    -858.7516    1.0151172        0.329     -0.00312      0.04026     -0.03948 
 1343000    -3380.391     649.6643   -4030.0553    787.27131    14687.872   -19511.058    299.38037    466.14092    1.0044857       0.3285     -0.00348      0.04029     -0.03942 
 1344000   -3374.8046    649.20679   -4024.0114    743.45376    14735.766   -19509.279    299.16954   -44.338627    1.0188179        0.328     -0.00384      0.04032     -0.03936 
 1345000   -3414.0548    633.50113   -4047.5559    741.74436    14718.784   -19512.907    291.93201   -525.67382    1.0141386       0.3275      -0.0042      0.04035      -0.0393 
 1346000   -3316.5908    674.16393   -3990.7548    667.59985    14846.892   -19512.775    310.67037   -1759.5915   0.99809131        0.327     -0.00456      0.04038     -0.03924 
 1347000   -3294.6314    663.31286   -3957.9443    736.78048    14810.739   -19510.543    305.66994   -94.554881   0.98806801       0.3265     -0.00492      0.04041     -0.03918 
 1348000   -3416.3599    648.61436   -4064.9742    756.30012    14685.565   -19514.885    298.89654   -225.60133    1.0211254        0.326     -0.00528      0.04044     -0.03912 
 1349000   -3362.3924    643.65894   -4006.0514    750.76971    14750.592   -19512.531    296.61296   -409.78012   0.99803076       0.3255     -0.00564      0.04047     -0.03906 
 1350000   -3366.7918     635.3948   -4002.1866    771.90866    14733.159   -19511.531    292.80465    347.72295   0.99734747        0.325       -0.006       0.0405       -0.039 
 1351000   -3415.4308    618.36904   -4033.7998    702.43516    14770.678   -19511.105    284.95879   -1784.6931   0.98415377       0.3245     -0.00636      0.04053     -0.03894 
 1352000   -3407.5348    657.23552   -4064.7703    787.28599    14652.854   -19512.587    302.86936    579.31586    1.0184581        0.324     -0.00672      0.04056     -0.03888 
 1353000   -3335.1587    673.29465   -4008.4534    716.09049    14781.741   -19513.064    310.26978   -1150.7816   0.99726366       0.3235     -0.00708      0.04059     -0.03882 
 1354000   -3277.3404    675.99406   -3953.3344    730.85509    14823.074   -19511.562    311.51374   -453.33451    1.0046468        0.323     -0.00744      0.04062     -0.03876 
 1355000   -3357.3321    658.65326   -4015.9853     743.4449    14744.832   -19511.201    303.52269    -138.7834    1.0028285       0.3225      -0.0078      0.04065      -0.0387 
 1356000   -3321.6289    670.85447   -3992.4834    760.72762    14750.974   -19509.807    309.14529    225.49524    1.0087357        0.322     -0.00816      0.04068     -0.03864 
 1357000   -3365.2341    629.89213   -3995.1263    676.97757    14828.832   -19508.579     290.2689   -2208.3481   0.99262095       0.3215     -0.00852      0.04071     -0.03858 
 1358000   -3347.7303    655.79952   -4003.5298    810.65005    14690.378   -19511.333    302.20762    1484.8033    1.0200523        0.321     -0.00888      0.04074     -0.03852 
 1359000   -3337.4164    636.80976   -3974.2262    754.77579    14772.607   -19509.754     293.4567    477.20211    1.0079569       0.3205     -0.00924      0.04077     -0.03846 
 1360000   -3361.6243    649.06921   -4010.6935    778.02085    14718.215   -19513.186    299.10614    112.34075   0.99449251         0.32      -0.0096       0.0408      -0.0384 
 1361000   -3354.3294    661.97633   -4016.3058    742.05977    14745.679   -19508.014    305.05404   -497.80746    1.0111474       0.3195     -0.00996      0.04083     -0.03834 
 1362000    -3396.445    633.46121   -4029.9062     746.4283    14729.469   -19512.731    291.91361   -521.81546    1.0019084        0.319     -0.01032      0.04086     -0.03828 
 1363000   -3352.9216    652.78456   -4005.7061    783.93927    14715.401   -19511.461    300.81826    707.07295    1.0179335       0.3185     -0.01068      0.04089     -0.03822 
 1364000   -3357.9631     651.7136   -4009.6767    715.73709     14778.72   -19511.781    300.32474   -553.54822    1.0035159        0.318     -0.01104      0.04092     -0.03816 
 1365000   -3329.5653    665.97915   -3995.5445    756.64836    14753.936   -19513.169    306.89863    259.02332    1.0036142       0.3175      -0.0114      0.04095      -0.0381 
 1366000   -3348.1087    644.25796   -3992.3666    735.61221    14775.312   -19509.356      296.889   -513.68604    1.0077817        0.317     -0.01176      0.04098     -0.03804 
 1367000   -3388.3178    646.01534   -4034.3331    827.72298    14644.627   -19512.688    297.69884    1562.7409    1.0218552       0.3165     -0.01212      0.04101     -0.03798 
 1368000   -3268.9138    675.06778   -3943.9816    749.13503    14813.913   -19510.628    311.08688    997.18555    1.0287701        0.316     -0.01248      0.04104     -0.03792 
 1369000   -3365.8994    649.81269   -4015.7121    722.54856    14766.774   -19510.051    299.44875   -698.16607    1.0116301       0.3155     -0.01284      0.04107     -0.03786 
 1370000    -3360.285    646.15281   -4006.4378    771.70963    14730.039   -19512.355     297.7622     592.0307     1.016268        0.315      -0.0132       0.0411      -0.0378 
 1371000   -3382.4664    619.89116   -4002.3576    761.26612    14743.321   -19513.101    285.66022    41.031836    1.0117752       0.3145     -0.01356      0.04113     -0.03774 
 1372000   -3361.9093    639.34779    -4001.257    735.19397    14769.102   -19512.164    294.62628   -31.177952    1.0224834        0.314     -0.01392      0.04116     -0.03768 
 1373000   -3414.2664    628.22901   -4042.4954    721.04989    14740.765   -19510.597    289.50249   -816.04557    1.0161721       0.3135     -0.01428      0.04119     -0.03762 
 1374000   -3297.9211    669.57137   -3967.4925    733.77516    14807.351   -19511.706    308.55401     -45.1571    1.0086001        0.313     -0.01464      0.04122     -0.03756 
 1375000   -3400.5604    637.64104   -4038.2014    751.99436    14717.644   -19512.522    293.83977    27.659322    1.0118444       0.3125       -0.015      0.04125      -0.0375 
 1376000   -3364.0687     619.7735   -3983.8422    789.32389    14730.362   -19509.344    285.60599    687.82667   0.99954126        0.312     -0.01536      0.04128     -0.03744 
 1377000    -3336.048    615.94895   -3951.9969    696.57754    14856.598   -19511.573    283.84355   -623.18006    1.0074833       0.3115     -0.01572      0.04131     -0.03738 
 1378000   -3381.5636    620.76936   -4002.3329    741.65418    14761.744   -19510.299    286.06491   -196.08441    1.0011411        0.311     -0.01608      0.04134     -0.03732 
 1379000   -3340.0115    690.27461   -4030.2861    762.15553    14714.781   -19512.257    318.09454   -30.762241   0.99690199       0.3105     -0.01644      0.04137     -0.03726 
 1380000   -3347.2155    656.01037   -4003.2258    716.37565    14788.275   -19512.456    302.30479   -1205.6761   0.99924354         0.31      -0.0168       0.0414      -0.0372 
 1381000   -3395.7754    643.08829   -4038.8637    831.66311    14635.698   -19511.703    296.34999    1214.1711    1.0198491       0.3095     -0.01716      0.04143     -0.03714 
 1382000    -3345.216    676.04612   -4021.2621     769.3717    14718.802    -19512.17    311.53773    216.29763    1.0077912        0.309     -0.01752      0.04146     -0.03708 
 1383000   -3371.0135     662.3878   -4033.4013    778.54885    14692.944   -19511.523    305.24366    203.26694    1.0114807       0.3085     -0.01788      0.04149     -0.03702 
 1384000   -3389.3325    616.57067   -4005.9032    774.53952     14727.28   -19512.359    284.13006    473.71215     1.023571        0.308     -0.01824      0.04152     -0.03696 
 1385000   -3462.4814    622.22392   -4084.7053    768.15584    14656.998    -19514.64    286.73521    121.73717    1.0272042       0.3075      -0.0186      0.04155      -0.0369 
 1386000   -3380.0897    631.59398   -4011.6836    715.44394    14775.878   -19508.523    291.05315   -911.33944   0.99433355        0.307     -0.01896      0.04158     -0.03684 
 1387000   -3351.8869    657.83134   -4009.7182    775.12197    14719.042   -19509.056    303.14393    412.54438    1.0017297       0.3065     -0.01932      0.04161     -0.03678 
 1388000   -3384.4114    679.78601   -4064.1974    773.14679    14668.462   -19510.958    313.26115    46.556688    1.0072915        0.306     -0.01968      0.04164     -0.03672 
 1389000   -3364.3318    662.90225    -4027.234    757.84897    14723.796   -19513.104    305.48072   -104.37191    1.0069696       0.3055     -0.02004      0.04167     -0.03666 
 1390000   -3349.7529    644.97104    -3994.724    780.75367    14729.859   -19512.213    297.21761    565.16397   0.98658755        0.305      -0.0204       0.0417      -0.0366 
 1391000   -3391.7591    663.88071   -4055.6398    733.73855    14715.864   -19511.228    305.93162   -342.79697    1.0216211       0.3045     -0.02076      0.04173     -0.03654 
 1392000   -3367.3286    643.27473   -4010.6033    775.78013     14720.97   -19512.123    296.43591      152.988    0.9998907        0.304     -0.02112      0.04176     -0.03648 
 1393000   -3391.6408     646.7234   -4038.3642    794.52292    14676.405   -19513.387    298.02514    218.61013   0.99417172       0.3035     -0.02148      0.04179     -0.03642 
 1394000   -3316.6437    666.20727    -3982.851    696.69721     14828.53   -19513.666    307.00375   -926.94908    1.0036704        0.303     -0.02184      0.04182     -0.03636 
 1395000   -3398.7486    671.12328   -4069.8719    757.72692    14679.609   -19511.526    309.26916   -381.71793    1.0129235       0.3025      -0.0222      0.04185      -0.0363 
 1396000   -3359.4733    653.38983   -4012.8631    762.46276    14733.268   -19511.682    301.09718    197.32301    1.0183139        0.302     -0.02256      0.04188     -0.03624 
 1397000   -3334.1043    679.22753   -4013.3318    739.01003    14753.068     -19509.6    313.00379    -165.6026    1.0053878       0.3015     -0.02292      0.04191     -0.03618 
 1398000   -3364.4258    699.98229   -4064.4081    765.00927    14678.575   -19512.607    322.56807     364.8252    1.0213746        0.301     -0.02328      0.04194     -0.03612 
 1399000   -3378.4543    640.96295   -4019.4173    734.45995    14752.026   -19510.031    295.37059   -939.25317     0.992871       0.3005     -0.02364      0.04197     -0.03606 
 1400000   -3404.2919    643.09499   -4047.3869     853.2563     14605.05   -19510.827    296.35308    1584.3814     1.017203          0.3       -0.024        0.042       -0.036 
 1401000    -3395.736     634.7635   -4030.4995    763.27945      14713.7   -19512.082    292.51374    2.6697199    1.0015618       0.2995     -0.02436      0.04203     -0.03594 
 1402000   -3412.7041    630.75953   -4043.4636    808.18622    14652.067   -19511.499    290.66861    764.05864    1.0050275        0.299     -0.02472      0.04206     -0.03588 
 1403000    -3388.321    622.26193   -4010.5829    762.12816    14731.938   -19510.436    286.75272   -8.0552401    1.0017096       0.2985     -0.02508      0.04209     -0.03582 
 1404000   -3428.2082    674.88917   -4103.0974    743.49516    14663.936   -19515.859    311.00457   -1233.2862   0.99872033        0.298     -0.02544      0.04212     -0.03576 
 1405000   -3362.3387    636.02357   -3998.3623    723.33877    14783.765    -19512.52    293.09441   -896.75852   0.98778929       0.2975      -0.0258      0.04215      -0.0357 
 1406000   -3337.3074    673.42226   -4010.7296    738.47694    14753.864   -19510.477    310.32859   -613.86349   0.99330304        0.297     -0.02616      0.04218     -0.03564 
 1407000   -3394.4097    654.68156   -4049.0913    763.20818    14692.681   -19510.714    301.69244   -397.88362    1.0168523       0.2965     -0.02652      0.04221     -0.03558 
 1408000   -3380.2047    644.93095   -4025.1357    788.09389    14691.788   -19511.935    297.19913    442.06245    1.0038548        0.296     -0.02688      0.04224     -0.03552 
 1409000   -3362.7763    656.75356   -4019.5299    747.60686    14734.826   -19509.665    302.64727   -313.85723    1.0087619       0.2955     -0.02724      0.04227     -0.03546 
 1410000   -3378.4433    649.99966   -4028.4429    735.00147    14740.033   -19508.626    299.53491   -3.6389285    1.0350931        0.295      -0.0276       0.0423      -0.0354 
 1411000   -3346.6917    635.49747   -3982.1892    724.25815    14798.733   -19512.163    292.85197    -514.3785     1.009297       0.2945     -0.02796      0.04233     -0.03534 
 1412000   -3371.6681    670.86155   -4042.5296    746.28928    14720.707   -19513.043    309.14856   -567.34076   0.99522656        0.294     -0.02832      0.04236     -0.03528 
 1413000   -3375.7972    671.60306   -4047.4003     782.8825    14674.249   -19511.384    309.49026    460.97202    1.0105059       0.2935     -0.02868      0.04239     -0.03522 
 1414000   -3356.5969    659.89373   -4016.4906    843.53628    14645.883   -19511.184    304.09433    1854.2525    1.0267984        0.293     -0.02904      0.04242     -0.03516 
 1415000   -3364.1731    659.41824   -4023.5913    724.03321    14758.518   -19513.931    303.87521   -861.89522     1.006548       0.2925      -0.0294      0.04245      -0.0351 
 1416000   -3367.8698    618.90636   -3986.7762    834.03745    14682.815   -19510.639     285.2064    1244.4794    1.0027211        0.292     -0.02976      0.04248     -0.03504 
 1417000   -3337.9285    655.84032   -3993.7688    756.22667     14757.91   -19512.305    302.22642    578.66911    1.0286803       0.2915     -0.03012      0.04251     -0.03498 
 1418000   -3382.1316    648.36204   -4030.4937    794.31857    14682.389   -19513.696    298.78026    544.90355    1.0153937        0.291     -0.03048      0.04254     -0.03492 
 1419000   -3343.0672    675.57827   -4018.6455    727.15145    14761.458   -19512.291    311.32213   -487.42065    1.0100141       0.2905     -0.03084      0.04257     -0.03486 
 1420000   -3352.0079    664.76635   -4016.7742    743.69599     14747.29   -19511.877    306.33974     23.27794    1.0313679         0.29      -0.0312       0.0426      -0.0348 
 1421000   -3397.7785    644.40492   -4042.1834    764.55415    14699.434   -19512.197    296.95673    244.90425    1.0326884       0.2895     -0.03156      0.04263     -0.03474 
 1422000   -3445.1046    620.64443    -4065.749    756.80017     14684.35   -19510.787    286.00734   -397.44672    1.0117483        0.289     -0.03192      0.04266     -0.03468 
 1423000   -3396.5184    640.05568   -4036.5741    737.15974    14733.774   -19512.882    294.95249   -795.39654    1.0015334       0.2885     -0.03228      0.04269     -0.03462 
 1424000    -3425.812    633.11899    -4058.931    762.64019    14687.839   -19511.976    291.75591   -15.285612    1.0171285        0.288     -0.03264      0.04272     -0.03456 
 1425000   -3355.9306     670.5276   -4026.4582    785.01815    14695.701   -19511.808    308.99466    435.93222    1.0094482       0.2875       -0.033      0.04275      -0.0345 
 1426000   -3374.1262    686.68046   -4060.8066    782.95854    14662.303   -19510.712    316.43827   -3.8005111    1.0006998        0.287     -0.03336      0.04278     -0.03444 
 1427000   -3323.5492    665.86871   -3989.4179    792.69599    14724.113   -19511.636    306.84774    992.94783    1.0229701       0.2865     -0.03372      0.04281     -0.03438 
 1428000   -3384.2321    640.86949   -4025.1015    795.35161    14685.248    -19512.41    295.32752    576.97096    1.0075412        0.286     -0.03408      0.04284     -0.03432 
 1429000   -3359.9047    666.59661   -4026.5013    772.35772    14707.445    -19511.09    307.18317     120.5029   0.99617131       0.2855     -0.03444      0.04287     -0.03426 
 1430000   -3354.2702    661.88401   -4016.1543    829.77504     14657.09     -19508.4    305.01149    1380.4851    1.0027741        0.285      -0.0348       0.0429      -0.0342 
 1431000   -3345.3478    681.66951   -4027.0173    701.74742    14778.213   -19512.246    314.12911   -1256.7634    1.0025786       0.2845     -0.03516      0.04293     -0.03414 
 1432000    -3410.857    653.04666   -4063.9037    773.10914    14672.396    -19512.32    300.93904    310.34266    1.0173665        0.284     -0.03552      0.04296     -0.03408 
 1433000   -3329.4891     662.7153   -3992.2044    693.60808    14819.639   -19511.087    305.39457   -561.20202     1.029226       0.2835     -0.03588      0.04299     -0.03402 
 1434000   -3388.3089    679.23561   -4067.5445    775.23855    14664.767    -19512.24    313.00751   -94.386468     1.013535        0.283     -0.03624      0.04302     -0.03396 
 1435000   -3416.3833    651.03728   -4067.4206    777.90937    14663.662   -19512.653    300.01307    157.50426    1.0303656       0.2825      -0.0366      0.04305      -0.0339 
 1436000   -3348.4811    651.41363   -3999.8948    747.07153    14759.345   -19512.382     300.1865    166.73132    1.0156778        0.282     -0.03696      0.04308     -0.03384 
 1437000   -3294.8265    659.79204   -3954.6185    742.15247    14811.049   -19513.041    304.04747    331.68172    1.0130831       0.2815     -0.03732      0.04311     -0.03378 
 1438000   -3362.2864    695.34503   -4057.6314    731.72209    14717.616   -19510.823    320.43111   -1202.1617   0.99093221        0.281     -0.03768      0.04314     -0.03372 
 1439000   -3424.5411    626.21909   -4050.7602      743.449    14708.773   -19509.237    288.57627   -1076.7157   0.98828704       0.2805     -0.03804      0.04317     -0.03366 
 1440000   -3391.5972      643.327   -4034.9242    827.52284    14647.217   -19512.398       296.46    1186.1243    1.0076802         0.28      -0.0384       0.0432      -0.0336 
 1441000   -3366.9355    647.71183   -4014.6473    747.73749    14746.036   -19512.625    298.48063    -322.9755    0.9929098       0.2795     -0.03876      0.04323     -0.03354 
 1442000   -3384.9064    640.32398   -4025.2304    794.05086    14686.605    -19509.86    295.07614    446.95523   0.99197389        0.279     -0.03912      0.04326     -0.03348 
 1443000   -3384.7381     633.1835   -4017.9216    766.33074    14724.163   -19513.743    291.78563    421.48619    1.0287334       0.2785     -0.03948      0.04329     -0.03342 
 1444000   -3372.2885    657.08122   -4029.3697    711.09034    14768.077   -19511.958    302.79826   -1006.3253   0.99717919        0.278     -0.03984      0.04332     -0.03336 
 1445000   -3359.4438    636.76171   -3996.2055     714.7795    14796.933   -19511.294    293.43456   -996.76425   0.98990615       0.2775      -0.0402      0.04335      -0.0333 
 1446000   -3332.2296    661.23074   -3993.4603    774.80518     14736.64   -19509.933    304.71045    626.55046    1.0057678        0.277     -0.04056      0.04338     -0.03324 
 1447000   -3398.8267    626.95461   -4025.7814    829.34824    14652.195   -19511.585    288.91522    1608.1451    1.0351144       0.2765     -0.04092      0.04341     -0.03318 
 1448000   -3406.3134    669.56609   -4075.8795    768.26115    14664.534   -19511.737    308.55158   -659.89599    0.9920904        0.276     -0.04128      0.04344     -0.03312 
 1449000   -3339.0934      676.957   -4016.0504    783.79171    14706.711   -19512.227    311.95748    373.10123   0.99302959       0.2755     -0.04164      0.04347     -0.03306 
 1450000   -3406.9045    647.96016   -4054.8647    770.07156    14685.075   -19513.918    298.59506   -169.72369   0.98773254        0.275       -0.042       0.0435       -0.033 
 1451000   -3398.0712    623.02627   -4021.0975    817.42501    14666.958   -19512.005    287.10495    847.49837     1.002852       0.2745     -0.04236      0.04353     -0.03294 
 1452000   -3391.8466    640.82199   -4032.6686    729.68432      14746.2   -19512.817    295.30563   -692.07254    1.0175646        0.274     -0.04272      0.04356     -0.03288 
 1453000   -3332.9191    694.53494   -4027.4541    801.91165    14676.501   -19510.998     320.0578    838.28898    1.0105247       0.2735     -0.04308      0.04359     -0.03282 
 1454000   -3352.6417    652.16822   -4004.8099    738.36813    14763.363   -19511.543    300.53423   -546.90347   0.99749882        0.273     -0.04344      0.04362     -0.03276 
 1455000   -3452.2093    603.12643   -4055.3357    765.18619    14686.851   -19513.734    277.93464   -435.55397    1.0178206       0.2725      -0.0438      0.04365      -0.0327 
 1456000   -3396.6212     632.0932   -4028.7144    789.46112    14691.778   -19513.485     291.2832    484.35384    1.0149124        0.272     -0.04416      0.04368     -0.03264 
 1457000   -3386.5551    660.16599   -4046.7211    744.53467     14718.86   -19513.382    304.21979   -523.97948     1.001031       0.2715     -0.04452      0.04371     -0.03258 
 1458000   -3443.4044    626.52417   -4069.9285    768.44581    14668.882   -19512.659    288.71686   -323.74158    1.0101057        0.271     -0.04488      0.04374     -0.03252 
 1459000   -3366.6397    648.15156   -4014.7913    801.13064    14692.623   -19512.264    298.68326    727.16275   0.99784731       0.2705     -0.04524      0.04377     -0.03246 
 1460000   -3401.7841    617.30495   -4019.0891    781.02928    14709.101   -19512.971    284.46843    712.25805    1.0081275         0.27      -0.0456       0.0438      -0.0324 
 1461000   -3365.0362    648.88582    -4013.922    770.39657    14722.532   -19509.726    299.02163    77.443435   0.99272161       0.2695     -0.04596      0.04383     -0.03234 
 1462000    -3347.562    629.90313   -3977.4651     774.4082    14754.934   -19511.932    290.27397   -87.422871   0.98314453        0.269     -0.04632      0.04386     -0.03228 
 1463000   -3384.7578    632.44377   -4017.2015    716.66752    14771.913   -19510.886    291.44475   -1394.5871   0.97731609       0.2685     -0.04668      0.04389     -0.03222 
 1464000   -3335.7975    680.08197   -4015.8795    745.99106    14743.515   -19510.015    313.39754   -643.86565   0.98661839        0.268     -0.04704      0.04392     -0.03216 
 1465000   -3385.6916    638.80382   -4024.4955    793.74055    14685.861   -19510.231    294.37561      262.958    1.0094314       0.2675      -0.0474      0.04395      -0.0321 
 1466000   -3323.0436    693.00202   -4016.0456    772.46581    14719.724   -19512.565    319.35139    361.37189    1.0173216        0.267     -0.04776      0.04398     -0.03204 
 1467000   -3419.3769    646.08786   -4065.4648    795.22254     14646.91   -19511.779    297.73227    125.94789    1.0038331       0.2665     -0.04812      0.04401     -0.03198 
 1468000   -3374.2672    638.98678   -4013.2539    813.27366    14682.719   -19514.095    294.45992    1018.5344    1.0073354        0.266     -0.04848      0.04404     -0.03192 
 1469000   -3408.8644    641.43984   -4050.3042    742.44484    14713.933   -19510.814    295.59035   -466.41436    1.0293125       0.2655     -0.04884      0.04407     -0.03186 
 1470000   -3428.8142    640.82443   -4069.6387    726.72684    14711.287   -19511.657    295.30676   -1256.4565    1.0098387        0.265      -0.0492       0.0441      -0.0318 
 1471000    -3368.007    639.41209   -4007.4191    736.98041    14761.221   -19511.477    294.65592   -321.14509    1.0063766       0.2645     -0.04956      0.04413     -0.03174 
 1472000   -3431.3239    636.15249   -4067.4764    782.52003    14653.623   -19509.793    293.15381    381.47224    1.0246335        0.264     -0.04992      0.04416     -0.03168 
 1473000   -3361.9729    682.27206    -4044.245    773.21339    14685.571   -19508.747    314.40678    76.516713    1.0218027       0.2635     -0.05028      0.04419     -0.03162 
 1474000   -3335.3387    665.67724   -4001.0159    795.05804    14708.635   -19510.202     306.7595    1304.7946    1.0149417        0.263     -0.05064      0.04422     -0.03156 
 1475000   -3354.8808    659.48754   -4014.3683    793.22085    14698.825   -19512.433    303.90715    897.80102   0.99946918       0.2625       -0.051      0.04425      -0.0315 
 1476000    -3428.428    650.97342   -4079.4014    758.56019    14669.862   -19512.192    299.98364   -344.82281    1.0038009        0.262     -0.05136      0.04428     -0.03144 
 1477000   -3356.1567    662.45151   -4018.6082    794.61085    14691.399   -19509.193    305.27301    787.42679    1.0122721       0.2615     -0.05172      0.04431     -0.03138 
 1478000    -3458.417    602.63641   -4061.0534    781.50882    14664.485   -19511.615    277.70883    16.024609    1.0081644        0.261     -0.05208      0.04434     -0.03132 
 1479000   -3398.2936    645.59332   -4043.8869    780.91568    14680.326   -19511.258    297.50437   -50.320527    1.0029632       0.2605     -0.05244      0.04437     -0.03126 
 1480000   -3360.3907    662.84997   -4023.2406    705.43642    14781.984   -19513.673    305.45663   -1274.8343   0.99959473         0.26      -0.0528       0.0444      -0.0312 
 1481000     -3346.45    686.16193    -4032.612    803.92937    14668.745   -19511.907    316.19933    1033.1902    1.0294516       0.2595     -0.05316      0.04443     -0.03114 
 1482000   -3391.5314    644.62297   -4036.1544    747.25824    14724.617   -19511.618    297.05721    227.24722    1.0308987        0.259     -0.05352      0.04446     -0.03108 
 1483000   -3333.8394    693.73845   -4027.5779    743.18124    14736.265   -19512.313    319.69076    264.42054    1.0196843       0.2585     -0.05388      0.04449     -0.03102 
 1484000   -3319.5398    661.28188   -3980.8217    784.35409      14736.5   -19505.719    304.73402    1012.8469    1.0098354        0.258     -0.05424      0.04452     -0.03096 
 1485000   -3324.4069    657.15799   -3981.5649    725.93442    14796.149   -19509.926    302.83364   -832.98494   0.97868408       0.2575      -0.0546      0.04455      -0.0309 
 1486000     -3412.73    618.90352   -4031.6335    838.65779    14639.488   -19512.737    285.20509    1435.2782    1.0071434        0.257     -0.05496      0.04458     -0.03084 
 1487000    -3361.811    639.04969   -4000.8607    753.72253    14752.056   -19513.242    294.48891    34.467086    1.0052761       0.2565     -0.05532      0.04461     -0.03078 
 1488000   -3373.0534    638.29669   -4011.3501    750.03434    14743.851   -19511.736    294.14191   -28.391462    1.0134539        0.256     -0.05568      0.04464     -0.03072 
 1489000   -3440.7091    630.60242   -4071.3115    761.46804    14674.271   -19512.538    290.59621   -547.01067    1.0000709       0.2555     -0.05604      0.04467     -0.03066 
 1490000   -3419.0601    630.31735   -4049.3774    738.06397    14718.416   -19511.069    290.46485    -860.0294   0.99618954        0.255      -0.0564       0.0447      -0.0306 
 1491000   -3335.6131    650.30641   -3985.9195    737.63618    14780.493   -19511.491    299.67627    47.672203    1.0210045       0.2545     -0.05676      0.04473     -0.03054 
 1492000   -3424.4598    646.53029   -4070.9901    788.77803    14643.685   -19510.542    297.93614    586.10475    1.0271594        0.254     -0.05712      0.04476     -0.03048 
 1493000   -3362.5745    637.80752    -4000.382    750.68646    14755.455   -19512.523    293.91649   -25.518135     1.001835       0.2535     -0.05748      0.04479     -0.03042 
 1494000   -3399.6604    640.58362    -4040.244    792.88517    14673.286   -19511.928    295.19578    275.39582   0.98886324        0.253     -0.05784      0.04482     -0.03036 
 1495000   -3300.2264     665.7582   -3965.9846    704.58363    14833.641    -19509.57    306.79681   -1127.2484    0.9938201       0.2525      -0.0582      0.04485      -0.0303 
 1496000   -3404.8285    645.68971   -4050.5182    773.26213    14682.624   -19510.486    297.54879    6.7360812    1.0087917        0.252     -0.05856      0.04488     -0.03024 
 1497000   -3360.8446    650.07104   -4010.9156    724.25733    14771.332   -19510.044    299.56781   -723.44178   0.99821741       0.2515     -0.05892      0.04491     -0.03018 
 1498000   -3335.1633    690.20679   -4025.3701    760.34765    14719.908   -19512.361    318.06329     58.65931    1.0054555        0.251     -0.05928      0.04494     -0.03012 
 1499000   -3345.7118    674.73102   -4020.4428    788.33026    14696.272   -19511.453     310.9317    209.60951   0.98952896       0.2505     -0.05964      0.04497     -0.03006 
 1500000   -3327.2998    671.80073   -3999.1006    745.76585    14755.867    -19507.33    309.58135   -241.07066   0.99371134         0.25        -0.06        0.045        -0.03 
 1501000   -3391.5527    632.61515   -4024.1679    721.99508    14762.325   -19513.237    291.52373   -1609.6529   0.96501156       0.2495     -0.06036      0.04503     -0.02994 
 1502000   -3355.0437    674.65603   -4029.6998    809.83105    14666.486   -19512.636    310.89714    744.35022   0.99205568        0.249     -0.06072      0.04506     -0.02988 
 1503000   -3415.1879    633.84563   -4049.0335    814.30054    14642.716   -19511.084    292.09076    766.18749    1.0074447       0.2485     -0.06108      0.04509     -0.02982 
 1504000   -3334.6981    655.88231   -3990.5804    731.07447    14782.996   -19511.852    302.24578   -330.09109    1.0130325        0.248     -0.06144      0.04512     -0.02976 
 1505000   -3331.2969    652.34625   -3983.6431    701.30698    14820.179   -19511.099    300.61627   -545.38599      1.03784       0.2475      -0.0618      0.04515      -0.0297 
 1506000   -3298.9707    672.37755   -3971.3483    730.20055    14802.506   -19510.703    309.84716    -30.65566   0.99881905        0.247     -0.06216      0.04518     -0.02964 
 1507000   -3331.7166    656.64902   -3988.3656    760.03448    14757.675   -19512.713    302.59909    48.940348   0.98478598       0.2465     -0.06252      0.04521     -0.02958 
 1508000   -3408.4569    657.61042   -4066.0673    799.79186    14643.325   -19513.774    303.04213   -47.923542   0.98413055        0.246     -0.06288      0.04524     -0.02952 
 1509000   -3385.9626    630.47341    -4016.436    759.97195    14727.026   -19510.463    290.53676   -84.304886    1.0050155       0.2455     -0.06324      0.04527     -0.02946 
 1510000   -3371.6627    633.04196   -4004.7046    746.47382    14756.399   -19512.918    291.72041   -241.09733    1.0055991        0.245      -0.0636       0.0453      -0.0294 
 1511000   -3376.9617    660.56466   -4037.5264    700.85444    14766.139   -19510.259    304.40351    -1796.386    0.9708622       0.2445     -0.06396      0.04533     -0.02934 
 1512000   -3378.6857    646.19312   -4024.8788    774.87081    14703.037   -19511.287    297.78077    216.03416    1.0104342        0.244     -0.06432      0.04536     -0.02928 
 1513000   -3368.8944    637.85897   -4006.7533    796.54238    14701.227    -19510.26     293.9402    527.31459    1.0005985       0.2435     -0.06468      0.04539     -0.02922 
 1514000   -3314.5867    652.58849   -3967.1752    742.36379    14796.225    -19510.78    300.72791    47.193673   0.99964306        0.243     -0.06504      0.04542     -0.02916 
 1515000   -3393.1688    609.79062   -4002.9595    755.89297     14746.21    -19510.78    281.00565   -257.30292    1.0094742       0.2425      -0.0654      0.04545      -0.0291 
 1516000   -3321.2939    671.00702   -3992.3009    755.13246    14760.945   -19512.152    309.21559   -107.93482   0.99904046        0.242     -0.06576      0.04548     -0.02904 
 1517000   -3443.6057    640.73968   -4084.3454    795.06482    14626.788   -19511.612     295.2677    161.89773    1.0174957       0.2415     -0.06612      0.04551     -0.02898 
 1518000   -3379.8641    690.61899   -4070.4831    769.89891    14665.947   -19512.695    318.25324   -236.40316     1.001054        0.241     -0.06648      0.04554     -0.02892 
 1519000   -3404.3166    617.32284   -4021.6395    773.23741    14711.237   -19510.535    284.47667    241.53638    1.0059255       0.2405     -0.06684      0.04557     -0.02886 
 1520000    -3376.193    615.10178   -3991.2948    744.17432    14768.649   -19509.228    283.45316    179.50817    1.0155341         0.24      -0.0672       0.0456      -0.0288 
 1521000   -3375.8704    642.00182   -4017.8723    740.07304    14747.109   -19509.831    295.84932    -600.4495    1.0071829       0.2395     -0.06756      0.04563     -0.02874 
 1522000   -3406.3201    666.11794    -4072.438    765.45406    14667.374   -19512.021    306.96259    -195.2369    1.0312667        0.239     -0.06792      0.04566     -0.02868 
 1523000   -3338.9932    667.09139   -4006.0846    745.90879    14753.415   -19511.913    307.41118    126.48661    1.0213577       0.2385     -0.06828      0.04569     -0.02862 
 1524000   -3386.5598    659.89565   -4046.4555    748.14304    14710.641   -19512.184    304.09521    44.956348    1.0361501        0.238     -0.06864      0.04572     -0.02856 
 1525000   -3324.5717    654.13506   -3978.7068    698.51777    14828.788   -19511.484     301.4406   -1260.0336   0.99175586       0.2375       -0.069      0.04575      -0.0285 
 1526000   -3333.0707    650.75646   -3983.8271    734.79176    14783.852   -19510.128    299.88366   -511.85927   0.99073093        0.237     -0.06936      0.04578     -0.02844 
 1527000    -3331.123    668.19335   -3999.3164    799.05994     14703.98   -19508.258    307.91898    438.12559   0.99541011       0.2365     -0.06972      0.04581     -0.02838 
 1528000   -3356.5197    616.31563   -3972.8354    829.88686    14701.608   -19509.859    284.01253    2091.3306    1.0335206        0.236     -0.07008      0.04584     -0.02832 
 1529000   -3267.4127    654.75128    -3922.164    687.96474    14896.951   -19512.461    301.72457   -1162.3332   0.99176552       0.2355     -0.07044      0.04587     -0.02826 
 1530000   -3385.7618    657.36695   -4043.1288    752.94772    14709.979   -19512.628    302.92993   -589.12773   0.98840854        0.235      -0.0708       0.0459      -0.0282 
 1531000   -3394.1915    638.82294   -4033.0145    761.58482    14711.898   -19509.611    294.38442   -255.23389   0.99151556       0.2345     -0.07116      0.04593     -0.02814 
 1532000   -3365.7425    660.66532   -4026.4078    737.15062    14743.612   -19510.973    304.44989   -769.59047    0.9998638        0.234     -0.07152      0.04596     -0.02808 
 1533000   -3359.9257    632.84441   -3992.7702     776.2752    14736.235   -19508.501    291.62938   -45.428519   0.97614781       0.2335     -0.07188      0.04599     -0.02802 
 1534000   -3326.9354    670.99618   -3997.9316    747.80826    14761.639   -19511.547    309.21059   -212.12997   0.98413027        0.233     -0.07224      0.04602     -0.02796 
 1535000   -3358.8094    655.61715   -4014.4265    775.71782    14719.587   -19512.837    302.12358    634.55564    1.0194086       0.2325      -0.0726      0.04605      -0.0279 
 1536000   -3301.0853    674.39119   -3975.4765    723.59187    14808.025    -19511.74    310.77509   -225.81114    1.0024136        0.232     -0.07296      0.04608     -0.02784 
 1537000   -3383.8574      638.201   -4022.0584    728.35344    14755.145   -19508.842    294.09782    -998.1765   0.98660187       0.2315     -0.07332      0.04611     -0.02778 
 1538000   -3430.8506    627.60691   -4058.4575    788.26623    14658.617   -19510.397    289.21581    238.83686    1.0125792        0.231     -0.07368      0.04614     -0.02772 
 1539000   -3362.8093      669.636   -4032.4453    753.09753    14721.348   -19511.935    308.58379     240.6048    1.0297144       0.2305     -0.07404      0.04617     -0.02766 
 1540000   -3348.7136    693.15183   -4041.8654    786.73204    14680.649   -19512.438    319.42043    1056.9715    1.0376495         0.23      -0.0744       0.0462      -0.0276 
 1541000   -3357.3473    639.14701   -3996.4943    799.50301    14713.442   -19512.263    294.53376    1312.9873    1.0153151       0.2295     -0.07476      0.04623     -0.02754 
 1542000   -3329.4343    634.33886   -3963.7732    699.86004    14844.451   -19512.459    292.31805   -924.35269    1.0083411        0.229     -0.07512      0.04626     -0.02748 
 1543000   -3398.3152    630.28235   -4028.5975    703.20672     14773.69    -19512.37    290.44872   -1510.8323    1.0047364       0.2285     -0.07548      0.04629     -0.02742 
 1544000   -3345.4964    666.02969   -4011.5261    775.66338    14719.465   -19511.395    306.92192    701.53083    1.0291633        0.228     -0.07584      0.04632     -0.02736 
 1545000   -3332.3317    681.99455   -4014.3262    736.09814    14755.429    -19510.15     314.2789    -304.9745    1.0069804       0.2275      -0.0762      0.04635      -0.0273 
 1546000   -3326.6629     672.2882   -3998.9511    761.72146    14744.932   -19511.337    309.80599    120.64505    1.0021128        0.227     -0.07656      0.04638     -0.02724 
 1547000    -3389.892    649.45879   -4039.3508    783.15406    14684.332   -19512.677    299.28567    232.65276    1.0118509       0.2265     -0.07692      0.04641     -0.02718 
 1548000   -3314.8372    683.24624   -3998.0835    764.91139    14745.284   -19513.202    314.85571   -76.026821   0.96924517        0.226     -0.07728      0.04644     -0.02712 
 1549000   -3338.2162    656.63849   -3994.8547    754.10325    14754.755   -19511.425    302.59424    372.01308    1.0154142       0.2255     -0.07764      0.04647     -0.02706 
 1550000   -3325.3513    662.97591   -3988.3272    755.96213    14763.219   -19512.624    305.51467    702.66714    1.0290962        0.225       -0.078       0.0465       -0.027 
 1551000   -3373.4758    642.12316   -4015.5989      732.771     14759.15   -19511.945    295.90524    -649.9508    1.0092485       0.2245     -0.07836      0.04653     -0.02694 
 1552000   -3318.7046    648.98328   -3967.6879    742.79708    14792.878   -19510.216    299.06654    2.6020056    1.0146493        0.224     -0.07872      0.04656     -0.02688 
 1553000   -3324.6557    672.73739   -3997.3931    809.28449    14701.896   -19512.313    310.01299    1515.8918     1.026718       0.2235     -0.07908      0.04659     -0.02682 
 1554000    -3316.232    646.74841   -3962.9804    745.47165    14801.009   -19514.948    298.03666    470.43581    1.0170771        0.223     -0.07944      0.04662     -0.02676 
 1555000   -3397.1722    654.51428   -4051.6865    710.03099    14745.855   -19512.809    301.61535   -1186.9257    1.0116057       0.2225      -0.0798      0.04665      -0.0267 
 1556000   -3319.4472    653.41316   -3972.8604    718.85822    14814.352   -19509.671    301.10793    -442.7695    1.0152842        0.222     -0.08016      0.04668     -0.02664 
 1557000   -3360.1118     637.6195   -3997.7313    772.11659    14736.007   -19512.122    293.82985    691.71939    1.0265727       0.2215     -0.08052      0.04671     -0.02658 
 1558000   -3424.4682    639.59499   -4064.0631    791.47384    14650.878   -19510.735     294.7402    502.70415     1.015131        0.221     -0.08088      0.04674     -0.02652 
 1559000   -3364.9727    632.17088   -3997.1436    757.31834    14751.427   -19511.166      291.319    231.14806    1.0108297       0.2205     -0.08124      0.04677     -0.02646 
 1560000   -3436.1329    638.77273   -4074.9057    816.20568    14615.227   -19511.497    294.36128    505.85023    1.0079794         0.22      -0.0816       0.0468      -0.0264 
 1561000   -3376.5687    630.72993   -4007.2987    790.73094    14708.839   -19514.693    290.65497    623.39145     1.010878       0.2195     -0.08196      0.04683     -0.02634 
 1562000   -3435.1721    642.17599   -4077.3481    762.64155    14666.101   -19512.076    295.92959   -727.32306    1.0075638        0.219     -0.08232      0.04686     -0.02628 
 1563000   -3381.4749    640.94337   -4022.4183    810.40335    14673.483   -19512.959    295.36156    1131.8161    1.0118915       0.2185     -0.08268      0.04689     -0.02622 
 1564000   -3319.3295    649.11747    -3968.447    711.87018    14824.456   -19512.278    299.12838   -409.31621     1.014276        0.218     -0.08304      0.04692     -0.02616 
 1565000   -3348.8679    667.53835   -4016.4062    785.95918    14707.922   -19514.844    307.61715    1292.7644    1.0302751       0.2175      -0.0834      0.04695      -0.0261 
 1566000   -3312.6565    680.02246    -3992.679     802.4938      14711.6   -19512.517    313.37012    825.60145   0.99322136        0.217     -0.08376      0.04698     -0.02604 
 1567000   -3351.7861    666.17774   -4017.9639    833.03145    14653.226   -19511.179    306.99015    1581.1197   0.99901931       0.2165     -0.08412      0.04701     -0.02598 
 1568000   -3371.6178    662.67303   -4034.2908    761.51059    14710.151   -19512.206     305.3751   -182.16127   0.99238661        0.216     -0.08448      0.04704     -0.02592 
 1569000   -3415.6104    632.59012   -4048.2005    705.58169    14754.161   -19513.833    291.51219   -1407.3905    1.0105626       0.2155     -0.08484      0.04707     -0.02586 
 1570000   -3347.4582    673.65948   -4021.1177    774.53214    14706.011   -19509.964     310.4379    520.60363    1.0304265        0.215      -0.0852       0.0471      -0.0258 
 1571000   -3354.2618     661.9373   -4016.1991    736.10733    14752.539   -19511.174    305.03605   -551.79593    1.0013819       0.2145     -0.08556      0.04713     -0.02574 
 1572000   -3397.6914     633.5746    -4031.266    776.53085    14696.434   -19510.407    291.96586     378.1968    1.0063776        0.214     -0.08592      0.04716     -0.02568 
 1573000   -3335.4853    649.99667    -3985.482    700.35911    14818.177    -19511.81    299.53353   -1166.1631   0.98283929       0.2135     -0.08628      0.04719     -0.02562 
 1574000   -3348.6179    645.22679   -3993.8447    766.97178    14745.214   -19512.457    297.33546    611.50266    1.0212075        0.213     -0.08664      0.04722     -0.02556 
 1575000   -3365.2928    655.68456   -4020.9774     784.4811    14697.516   -19509.645    302.15465    492.69931     1.018061       0.2125       -0.087      0.04725      -0.0255 
 1576000   -3332.4824    655.50855   -3987.9909    758.02273    14759.428   -19512.269    302.07354    97.476706    1.0083675        0.212     -0.08736      0.04728     -0.02544 
 1577000   -3363.8709    629.33694   -3993.2078    724.21366    14787.047   -19509.675    290.01305   -522.10145    1.0056915       0.2115     -0.08772      0.04731     -0.02538 
 1578000   -3330.8872    653.64208   -3984.5293    671.39976    14848.807   -19509.995    301.21342   -1943.8872   0.97249343        0.211     -0.08808      0.04734     -0.02532 
 1579000   -3272.7884     672.7585   -3945.5469    783.00295    14774.305   -19510.073    310.02271    955.56291      1.01162       0.2105     -0.08844      0.04737     -0.02526 
 1580000   -3354.6921    668.36634   -4023.0584    761.42353     14721.38   -19511.319     307.9987   -22.188643    1.0049333         0.21      -0.0888       0.0474      -0.0252 
 1581000   -3341.5663     670.4636   -4012.0299      776.808    14721.049    -19514.78    308.96517    338.57891    0.9945717       0.2095     -0.08916      0.04743     -0.02514 
 1582000    -3331.654    664.46806   -3996.1221    735.28388    14773.718   -19511.718    306.20229   -384.93071   0.98552412        0.209     -0.08952      0.04746     -0.02508 
 1583000   -3372.2927    655.27342   -4027.5661    804.54469    14673.185    -19509.23    301.96518    707.96001   0.98806789       0.2085     -0.08988      0.04749     -0.02502 
 1584000   -3367.1562    652.46871   -4019.6249    790.53777      14693.5   -19509.746    300.67271    858.18855    1.0204701        0.208     -0.09024      0.04752     -0.02496 
 1585000   -3393.6587    612.87447   -4006.5331    721.25292    14776.593   -19511.775    282.42676   -715.35375    1.0265332       0.2075      -0.0906      0.04755      -0.0249 
 1586000   -3364.3212    659.38227   -4023.7035    798.84202    14681.109   -19510.389    303.85863    857.09189    1.0113965        0.207     -0.09096      0.04758     -0.02484 
 1587000   -3372.9732    685.33249   -4058.3057    792.26225    14654.925   -19512.988     315.8171    656.51738     1.028052       0.2065     -0.09132      0.04761     -0.02478 
 1588000   -3387.5973    668.69613   -4056.2934    749.68547     14697.78   -19510.366    308.15068   -156.67454    1.0226296        0.206     -0.09168      0.04764     -0.02472 
 1589000   -3386.5331    649.17461   -4035.7077    720.06258     14746.92   -19510.993    299.15471   -999.61937    1.0089664       0.2055     -0.09204      0.04767     -0.02466 
 1590000   -3348.0364      644.496   -3992.5323    757.88252    14756.541   -19511.399     296.9987    234.26609    1.0106345        0.205      -0.0924       0.0477      -0.0246 
 1591000   -3348.3506    628.87772   -3977.2283    775.11918    14748.633   -19510.942    289.80143   -63.976545   0.98273383       0.2045     -0.09276      0.04773     -0.02454 
 1592000   -3354.8802    656.56923   -4011.4495    785.54992    14707.718   -19511.551    302.56232    589.14006    1.0116212        0.204     -0.09312      0.04776     -0.02448 
 1593000   -3329.9794    673.35022   -4003.3296    803.93892    14699.016   -19511.998    310.29539     1533.092    1.0251111       0.2035     -0.09348      0.04779     -0.02442 
 1594000   -3349.1504    670.01609   -4019.1665    750.85848    14734.515    -19511.93    308.75895   -171.07788     1.004056        0.203     -0.09384      0.04782     -0.02436 
 1595000   -3394.7934    634.14401   -4028.9374    762.05181    14715.088   -19513.466    292.22826   -142.80882    1.0045718       0.2025      -0.0942      0.04785      -0.0243 
 1596000   -3371.7606    658.01519   -4029.7758    784.40353    14689.057   -19512.533    303.22865    35.690169    1.0027475        0.202     -0.09456      0.04788     -0.02424 
 1597000   -3416.0249    642.85489   -4058.8798    749.08435    14696.602   -19511.195    296.24244   -561.00432    1.0073036       0.2015     -0.09492      0.04791     -0.02418 
 1598000   -3394.0343    657.47308   -4051.5073     753.8781    14699.523   -19513.915    302.97884   -498.14861    1.0013269        0.201     -0.09528      0.04794     -0.02412 
 1599000   -3344.4968    640.93811   -3985.4349    769.02003    14750.662   -19511.316    295.35914    308.05947    1.0014403       0.2005     -0.09564      0.04797     -0.02406 
 1600000   -3375.6241    649.68962   -4025.3137    770.63508    14710.715   -19512.468    299.39204    123.17764    1.0132573          0.2       -0.096        0.048       -0.024 
 1601000   -3340.1154    674.50248   -4014.6179    767.35297    14723.242   -19510.944    310.82638    160.65513   0.99978509       0.1995     -0.09636      0.04803     -0.02394 
 1602000   -3335.4201    661.57044   -3996.9906    761.67042    14748.021   -19513.179    304.86699    726.78614    1.0106668        0.199     -0.09672      0.04806     -0.02388 
 1603000   -3357.4763    674.83138   -4032.3077    747.24852    14727.593     -19510.9    310.97794   -424.25358    1.0043213       0.1985     -0.09708      0.04809     -0.02382 
 1604000   -3389.8179    640.03173   -4029.8497    732.83369    14748.906   -19514.753    294.94146   -497.20223    1.0160392        0.198     -0.09744      0.04812     -0.02376 
 1605000   -3373.5726    654.52787   -4028.1004    746.85077    14730.538    -19510.94    301.62162    37.295332     1.017029       0.1975      -0.0978      0.04815      -0.0237 
 1606000   -3398.4564    661.84711   -4060.3035    794.06776    14651.694   -19510.999    304.99449     282.0111    1.0007718        0.197     -0.09816      0.04818     -0.02364 
 1607000   -3326.0188    671.94359   -3997.9623    757.66217    14749.174   -19512.231    309.64718   -282.09201    0.9788157       0.1965     -0.09852      0.04821     -0.02358 
 1608000   -3392.2373    672.39139   -4064.6286     759.7431    14681.305   -19512.626    309.85354   -627.97928   0.99259822        0.196     -0.09888      0.04824     -0.02352 
 1609000   -3354.9653     667.4181   -4022.3834    771.43884    14708.796   -19509.905    307.56173   -120.93328   0.99631181       0.1955     -0.09924      0.04827     -0.02346 
 1610000   -3300.5996    648.76273   -3949.3623    749.51774    14806.273    -19512.99     298.9649   -42.182934    0.9792793        0.195      -0.0996       0.0483      -0.0234 
 1611000    -3361.904    666.91688   -4028.8209     735.3771    14742.472   -19512.245    307.33076    15.239714    1.0322787       0.1945     -0.09996      0.04833     -0.02334 
 1612000   -3335.4372    652.36044   -3987.7977    729.04663    14784.653   -19508.496    300.62282   -494.62145    1.0163787        0.194     -0.10032      0.04836     -0.02328 
 1613000   -3393.5546    676.55887   -4070.1135    753.81369    14680.737   -19512.878    311.77401   -466.19894    1.0100912       0.1935     -0.10068      0.04839     -0.02322 
 1614000   -3375.9336    652.49463   -4028.4283    794.39962     14683.29   -19514.052    300.68465    535.28792    1.0048896        0.193     -0.10104      0.04842     -0.02316 
 1615000   -3363.1958    622.90768   -3986.1035    764.78549    14751.845   -19511.607     287.0503    125.77922    1.0082954       0.1925      -0.1014      0.04845      -0.0231 
 1616000   -3376.7665    633.48786   -4010.2543    747.42006    14742.173   -19510.343    291.92589   -569.38728    1.0012267        0.192     -0.10176      0.04848     -0.02304 
 1617000   -3346.8245    676.79631   -4023.6209    745.71323    14737.105     -19511.8    311.88343   -530.25356   0.99097513       0.1915     -0.10212      0.04851     -0.02298 
 1618000    -3383.507    671.94456   -4055.4515    715.68998    14736.937   -19514.118    309.64763   -1211.8221   0.99375708        0.191     -0.10248      0.04854     -0.02292 
 1619000   -3355.9032    644.92842   -4000.8317    807.64236    14695.594   -19512.391    297.19797    400.09758   0.96750336       0.1905     -0.10284      0.04857     -0.02286 
 1620000   -3308.9423    656.65661   -3965.5989    762.37872    14779.306   -19514.378    302.60259    317.28669   0.98772893         0.19      -0.1032       0.0486      -0.0228 
 1621000   -3339.3104    641.77952   -3981.0899     741.4084    14780.287   -19513.433    295.74688    23.863503    1.0204245       0.1895     -0.10356      0.04863     -0.02274 
 1622000   -3410.6613     630.9535   -4041.6148    765.16886    14699.591   -19514.077      290.758   -279.46631   0.99917045        0.189     -0.10392      0.04866     -0.02268 
 1623000   -3380.1732    650.56644   -4030.7396    732.98245    14739.748   -19512.582     299.7961   -959.98981   0.99447087       0.1885     -0.10428      0.04869     -0.02262 
 1624000   -3320.5035    669.42121   -3989.9247    783.87117     14729.27   -19512.373    308.48481    311.44908   0.99929413        0.188     -0.10464      0.04872     -0.02256 
 1625000   -3360.5727    668.60294   -4029.1757    803.46833    14672.768   -19512.136    308.10773    939.32589    1.0099943       0.1875       -0.105      0.04875      -0.0225 
 1626000   -3417.7544    642.88327   -4060.6377    774.70752    14672.843   -19511.786    296.25551   -7.0679864    1.0094421        0.187     -0.10536      0.04878     -0.02244 
 1627000   -3312.3784    694.09771   -4006.4761    784.37835    14716.322   -19514.509    319.85632    486.04703    1.0011708       0.1865     -0.10572      0.04881     -0.02238 
 1628000    -3358.478    648.17225   -4006.6502    793.81114    14704.703   -19512.245     298.6928    310.59837   0.99167923        0.186     -0.10608      0.04884     -0.02232 
 1629000    -3320.835    673.53386   -3994.3689    737.50192    14773.426    -19510.84    310.38002   -259.48305    1.0054881       0.1855     -0.10644      0.04887     -0.02226 
 1630000   -3360.0625    643.95896   -4004.0215    747.49219    14752.081   -19512.019    296.75122    115.38116    1.0098859        0.185      -0.1068       0.0489      -0.0222 
 1631000   -3348.5651    633.73366   -3982.2988     779.5999    14741.447    -19510.46    292.03916     882.1726    1.0246989       0.1845     -0.10716      0.04893     -0.02214 
 1632000   -3308.8311    673.35377   -3982.1849    747.11692     14772.04   -19509.574    310.29703   -420.20034   0.98830396        0.184     -0.10752      0.04896     -0.02208 
 1633000   -3393.4277     641.3859   -4034.8136    753.29628    14715.449   -19511.885    295.56549   -212.69162    1.0103834       0.1835     -0.10788      0.04899     -0.02202 
 1634000   -3347.9938    661.69616   -4009.6899    750.16896    14746.656    -19511.59    304.92493    477.99968    1.0271377        0.183     -0.10824      0.04902     -0.02196 
 1635000   -3396.1348    633.10704   -4029.2419     727.6035    14749.005   -19512.645     291.7504   -921.73504   0.99915846       0.1825      -0.1086      0.04905      -0.0219 
 1636000   -3362.3309    653.56431   -4015.8952    752.54653    14736.485    -19511.77    301.17759   -121.21311    1.0148221        0.182     -0.10896      0.04908     -0.02184 
 1637000   -3373.0899    665.53906    -4038.629    770.14894    14696.578   -19511.656    306.69583   -27.346971   0.99641121       0.1815     -0.10932      0.04911     -0.02178 
 1638000   -3368.5345    662.37097   -4030.9055    729.80081    14745.846   -19514.034     305.2359   -192.99753    1.0282753        0.181     -0.10968      0.04914     -0.02172 
 1639000   -3312.9583    667.58903   -3980.5473    753.14603    14769.633   -19509.641     307.6405    79.042027     1.020693       0.1805     -0.11004      0.04917     -0.02166 
 1640000   -3393.0851    662.49767   -4055.5827     721.9187    14729.469   -19514.219    305.29428    -1284.621   0.99805995         0.18      -0.1104       0.0492      -0.0216 
 1641000   -3342.6088    663.33286   -4005.9417    741.24085    14759.717   -19512.602    305.67916   -387.61697    0.9972781       0.1795     -0.11076      0.04923     -0.02154 
 1642000   -3426.9919    630.22451   -4057.2165    755.98882    14692.621   -19512.748    290.42207   -602.85876    0.9903948        0.179     -0.11112      0.04926     -0.02148 
 1643000   -3324.4275    682.46981   -4006.8973    727.81771     14769.57   -19511.607    314.49791   -916.88954    0.9958877       0.1785     -0.11148      0.04929     -0.02142 
 1644000   -3362.2444    609.82268   -3972.0671    763.99717    14772.391   -19512.388    281.02043    585.44829    1.0211759        0.178     -0.11184      0.04932     -0.02136 
 1645000   -3318.8865    682.64682   -4001.5334     724.7546    14780.202   -19512.366    314.57948   -504.03569   0.99559817       0.1775      -0.1122      0.04935      -0.0213 
 1646000   -3400.7655    657.72619   -4058.4917    790.77525    14657.439   -19512.245    303.09548    92.373571   0.99014189        0.177     -0.11256      0.04938     -0.02124 
 1647000   -3320.2653    671.26398   -3991.5292     804.8196    14709.372   -19511.216      309.334    948.42592   0.99618723       0.1765     -0.11292      0.04941     -0.02118 
 1648000   -3339.8402    684.92481   -4024.7651    829.21244     14651.66   -19511.264    315.62923      1389.24    1.0012834        0.176     -0.11328      0.04944     -0.02112 
 1649000     -3388.05    683.25623   -4071.3062    747.01627    14688.674   -19511.303    314.86031   -666.37637    1.0016416       0.1755     -0.11364      0.04947     -0.02106 
 1650000   -3393.8447     623.1859   -4017.0306    755.22712    14732.027   -19510.846    287.17851   -250.28455     0.994464        0.175       -0.114       0.0495       -0.021 
 1651000   -3350.0602    673.57338   -4023.6335    722.09883    14759.414   -19513.522    310.39823   -1067.7181   0.98760683       0.1745     -0.11436      0.04953     -0.02094 
 1652000   -3342.1089    658.65894   -4000.7678    708.01445    14791.994   -19510.147    303.52531   -740.12725    1.0110521        0.174     -0.11472      0.04956     -0.02088 
 1653000   -3406.0476    657.48405   -4063.5316    771.85059    14669.093   -19511.552    302.98389       -156.9    1.0083289       0.1735     -0.11508      0.04959     -0.02082 
 1654000   -3408.9293    625.84929   -4034.7785     792.6039    14681.753   -19514.351    288.40586    806.42182    1.0118391        0.173     -0.11544      0.04962     -0.02076 
 1655000   -3372.8853    648.42806   -4021.3134    774.30588    14709.802   -19513.505    298.81068    152.43588    1.0117068       0.1725      -0.1158      0.04965      -0.0207 
 1656000   -3369.1088    640.85607   -4009.9649    727.63036    14771.802   -19512.006    295.32133   -881.26598    1.0075197        0.172     -0.11616      0.04968     -0.02064 
 1657000   -3402.3788    657.82932   -4060.2081    799.85362    14645.025   -19512.299      303.143    391.79006     1.010806       0.1715     -0.11652      0.04971     -0.02058 
 1658000   -3308.3849    677.76378   -3986.1487    781.13472    14739.543   -19512.403    312.32926    380.31324    1.0006477        0.171     -0.11688      0.04974     -0.02052 
 1659000   -3377.4574    686.94144   -4064.3989    750.71534    14692.936   -19512.129    316.55854   -681.21074    1.0008713       0.1705     -0.11724      0.04977     -0.02046 
 1660000   -3320.6345    653.56111   -3974.1956    714.27905    14815.486    -19510.76    301.17611   -522.08882    1.0032296         0.17      -0.1176       0.0498      -0.0204 
 1661000   -3315.7475    665.63321   -3981.3807    809.24863    14711.324   -19510.666    306.73921    994.52434   0.98476418       0.1695     -0.11796      0.04983     -0.02034 
 1662000   -3409.1367    645.27031    -4054.407    803.74671    14647.492   -19513.768    297.35552    363.85715    1.0063357        0.169     -0.11832      0.04986     -0.02028 
 1663000   -3446.4963    620.86028   -4067.3566    841.76355    14595.271   -19511.831    286.10681    1309.4538     1.027427       0.1685     -0.11868      0.04989     -0.02022 
 1664000   -3353.2094    669.42518   -4022.6345    798.23622    14685.268   -19514.634    308.48664    1159.2638    1.0390326        0.168     -0.11904      0.04992     -0.02016 
 1665000   -3424.8021    624.52907   -4049.3312    788.14489    14663.033   -19510.771    287.79748    697.97198    1.0197629       0.1675      -0.1194      0.04995      -0.0201 
 1666000   -3387.0032    658.10585   -4045.1091    738.62014    14721.896   -19513.812    303.27043    -392.9752    1.0124045        0.167     -0.11976      0.04998     -0.02004 
 1667000   -3358.6052    678.84062   -4037.4458    732.71825    14735.538   -19508.968     312.8255   -1078.4331    0.9854541       0.1665     -0.12012      0.05001     -0.01998 
 1668000   -3380.0381    661.89666   -4041.9347    804.98647    14657.579   -19512.758    305.01732    870.59482    1.0262736        0.166     -0.12048      0.05004     -0.01992 
 1669000   -3379.6407    680.70298   -4060.3436    749.55163    14691.579   -19510.408    313.68372   -416.95847    1.0136021       0.1655     -0.12084      0.05007     -0.01986 
 1670000   -3371.0579    636.41372   -4007.4717    724.24402    14771.581   -19511.275     293.2742    -993.5473   0.99224465        0.165      -0.1212       0.0501      -0.0198 
 1671000    -3375.925    662.27951   -4038.2045    789.05439    14674.687   -19509.519    305.19375     651.2973    1.0098332       0.1645     -0.12156      0.05013     -0.01974 
 1672000   -3487.5486    641.85134   -4129.3999    817.16361    14560.937   -19514.389    295.77998   -37.569598   0.98546633        0.164     -0.12192      0.05016     -0.01968 
 1673000   -3434.6896    646.63181   -4081.3214    769.73779    14656.089   -19512.473    297.98293   -416.41445    1.0009412       0.1635     -0.12228      0.05019     -0.01962 
 1674000   -3331.1719    677.62613   -4008.7981    732.64195    14762.793   -19510.594    312.26583   -628.32935   0.99571918        0.163     -0.12264      0.05022     -0.01956 
 1675000   -3372.2206    656.94633   -4029.1669    769.81251    14702.867     -19509.8     302.7361   -87.675221    1.0204493       0.1625       -0.123      0.05025      -0.0195 
 1676000   -3374.6742     660.2108    -4034.885    766.84314     14706.13   -19514.136    304.24044   -73.586188    1.0006237        0.162     -0.12336      0.05028     -0.01944 
 1677000   -3352.9991    629.23683   -3982.2359    767.82938    14755.961   -19512.468    289.96692    226.07947   0.98831181       0.1615     -0.12372      0.05031     -0.01938 
 1678000   -3425.7825    656.22106   -4082.0035    782.38639    14643.931   -19511.611    302.40188    192.57603    1.0153624        0.161     -0.12408      0.05034     -0.01932 
 1679000   -3417.4289    648.06774   -4065.4966    761.72024    14674.094   -19510.729    298.64464   -166.02005    1.0120911       0.1605     -0.12444      0.05037     -0.01926 
 1680000   -3370.4607    643.42289   -4013.8836    748.35245    14741.578    -19510.92    296.50418    374.86634    1.0198535         0.16      -0.1248       0.0504      -0.0192 
 1681000   -3297.5651    658.05331   -3955.6184    707.72759    14837.914   -19510.134    303.24622    -673.2864   0.97981467       0.1595     -0.12516      0.05043     -0.01914 
 1682000   -3404.0107     647.8211   -4051.8318    762.48071    14691.532   -19513.005    298.53098   -724.01761   0.99361869        0.159     -0.12552      0.05046     -0.01908 
 1683000    -3330.927    691.67525   -4022.6022    773.49209    14709.211   -19514.293    318.73999    78.693659    1.0157221       0.1585     -0.12588      0.05049     -0.01902 
 1684000   -3363.6552    629.30906   -3992.9643    777.24751    14731.868   -19510.875     290.0002    475.09589    1.0035441        0.158     -0.12624      0.05052     -0.01896 
 1685000   -3351.5123    677.88899   -4029.4013    721.46905    14750.932   -19511.833    312.38696   -792.04664   0.99811722       0.1575      -0.1266      0.05055      -0.0189 
 1686000   -3377.4492    639.77896   -4017.2282    710.45511    14777.037   -19511.739    294.82498   -929.59084    1.0160006        0.157     -0.12696      0.05058     -0.01884 
 1687000   -3423.1555    635.61799   -4058.7734    759.99121    14682.514   -19510.364     292.9075   -978.55702   0.98754985       0.1565     -0.12732      0.05061     -0.01878 
 1688000   -3379.7192    654.48821   -4034.2075    788.50189    14678.772   -19509.129    301.60334    237.63461   0.98709076        0.156     -0.12768      0.05064     -0.01872 
 1689000    -3341.796    629.46959   -3971.2655    779.68632    14753.017   -19512.092    290.07418    1067.2052    1.0084602       0.1555     -0.12804      0.05067     -0.01866 
 1690000   -3318.6667    654.40573   -3973.0724    746.15371    14785.305   -19513.051    301.56533    -88.98066   0.99511298        0.155      -0.1284       0.0507      -0.0186 
 1691000   -3359.7769    670.41194   -4030.1889    801.96728    14675.138   -19513.961    308.94136    686.39474   0.99874973       0.1545     -0.12876      0.05073     -0.01854 
 1692000   -3316.3416    681.96423   -3998.3058    780.64669    14727.787   -19512.851    314.26493    750.51973   0.99917608        0.154     -0.12912      0.05076     -0.01848 
 1693000    -3353.168    653.15259   -4006.3206    821.30192    14674.923   -19510.306    300.98786    967.59917   0.98907277       0.1535     -0.12948      0.05079     -0.01842 
 1694000   -3289.0299    669.69527   -3958.7252    775.93905    14769.017   -19510.916    308.61111   -159.20878   0.97614791        0.153     -0.12984      0.05082     -0.01836 
 1695000   -3323.5645     662.9094   -3986.4739    824.78684    14692.563   -19510.923    305.48402    1261.8987   0.99530561       0.1525      -0.1302      0.05085      -0.0183 
 1696000   -3416.1253     626.8649   -4042.9902    768.43765    14696.795   -19511.426    288.87388   -388.26893   0.98336652        0.152     -0.13056      0.05088     -0.01824 
 1697000   -3355.0631    682.11228   -4037.1754    714.79325    14758.125   -19514.102    314.33315   -891.47444    1.0007026       0.1515     -0.13092      0.05091     -0.01818 
 1698000   -3319.9722    647.36335   -3967.3356    763.38719    14773.929    -19512.41    298.32004     105.8252    1.0013155        0.151     -0.13128      0.05094     -0.01812 
 1699000   -3390.2721     632.4186   -4022.6907    815.76699    14667.127   -19512.261    291.43315    966.16791     1.014472       0.1505     -0.13164      0.05097     -0.01806 
 1700000   -3325.3152    632.02427   -3957.3395    738.72676    14810.372   -19513.388    291.25143    129.17011    1.0016239         0.15       -0.132        0.051       -0.018 
 1701000   -3387.3769    646.43576   -4033.8127    824.57689    14644.391   -19511.932    297.89259    948.93213    1.0040293       0.1495     -0.13236      0.05103     -0.01794 
 1702000   -3420.9923    637.67331   -4058.6657    747.90635    14697.627   -19512.551    293.85464   -825.98201    1.0180169        0.149     -0.13272      0.05106     -0.01788 
 1703000   -3370.6527     632.0997   -4002.7524    695.46369     14806.76   -19512.839     291.2862   -1123.8793    1.0068113       0.1485     -0.13308      0.05109     -0.01782 
 1704000   -3372.9736    660.17656   -4033.1501      735.263    14738.701   -19513.703    304.22467   -387.29673     1.007443        0.148     -0.13344      0.05112     -0.01776 
 1705000   -3412.6745    637.41085   -4050.0853    758.37238    14695.394   -19511.703     293.7337   -172.05578     1.012795       0.1475      -0.1338      0.05115      -0.0177 
 1706000   -3373.7053    659.34851   -4033.0539    800.48648    14662.949   -19507.859    303.84308    606.66384    1.0211806        0.147     -0.13416      0.05118     -0.01764 
 1707000   -3332.8901     679.9083   -4012.7984    749.46973     14742.39   -19511.932    313.31751   -52.420437    1.0220311       0.1465     -0.13452      0.05121     -0.01758 
 1708000   -3345.0879    664.71119   -4009.7991    795.86893    14701.774   -19512.833    306.31432    1215.7945    1.0301091        0.146     -0.13488      0.05124     -0.01752 
 1709000   -3398.0325    662.04895   -4060.0814    754.13778    14691.789   -19513.058     305.0875   -481.16317   0.98983323       0.1455     -0.13524      0.05127     -0.01746 
 1710000   -3381.2038     669.3007   -4050.5045    761.38316    14694.951   -19513.561    308.42928    -143.7532    1.0101103        0.145      -0.1356       0.0513      -0.0174 
 1711000   -3357.8239    653.72577   -4011.5497    674.36401     14820.28   -19513.657    301.25199   -1757.1841    1.0285649       0.1445     -0.13596      0.05133     -0.01734 
 1712000   -3325.8465    681.36959   -4007.2161    765.51839    14731.011   -19512.449     313.9909    940.69505    1.0271361        0.144     -0.13632      0.05136     -0.01728 
 1713000   -3460.3769    641.10959   -4101.4865    823.24729    14583.509   -19512.423    295.43816    993.25942     1.020646       0.1435     -0.13668      0.05139     -0.01722 
 1714000   -3418.3851    657.81816   -4076.2032    803.34047    14628.856   -19511.978    303.13786    296.38674     1.008793        0.143     -0.13704      0.05142     -0.01716 
 1715000   -3393.9727    624.37454   -4018.3473    793.24732    14694.117   -19512.317    287.72626   -50.910232   0.98284224       0.1425      -0.1374      0.05145      -0.0171 
 1716000   -3428.9609    642.51893   -4071.4798     803.3853    14629.585   -19512.738    296.08762    211.55387    1.0021447        0.142     -0.13776      0.05148     -0.01704 
 1717000   -3341.3487    667.16534   -4008.5141    763.42647    14732.155   -19513.008    307.44526    405.00531    1.0033797       0.1415     -0.13812      0.05151     -0.01698 
 1718000   -3401.2358    641.69054   -4042.9263    755.69641    14706.598   -19513.257    295.70588   -213.88448    1.0190453        0.141     -0.13848      0.05154     -0.01692 
 1719000   -3391.1143    646.09196   -4037.2063    820.09177     14647.03   -19513.153    297.73416     1129.396    1.0263603       0.1405     -0.13884      0.05157     -0.01686 
 1720000   -3429.1137    651.49071   -4080.6044    759.03442     14667.35   -19512.882    300.22202   -195.19204    1.0083384         0.14      -0.1392       0.0516      -0.0168 
 1721000   -3282.4207    673.45533    -3955.876     696.2761    14854.567   -19512.618    310.34383   -747.00136   0.99462668       0.1395     -0.13956      0.05163     -0.01674 
 1722000     -3341.42    642.01278   -3983.4328    766.07099    14753.913   -19510.554    295.85437    388.12743    1.0017544        0.139     -0.13992      0.05166     -0.01668 
 1723000   -3326.0765     656.1051   -3982.1817    724.13505    14800.188   -19513.692    302.34844   -864.75284   0.99130105       0.1385     -0.14028      0.05169     -0.01662 
 1724000   -3321.7249    663.41924   -3985.1442    710.13464     14811.19   -19511.635    305.71897   -500.15959    1.0048711        0.138     -0.14064      0.05172     -0.01656 
 1725000   -3403.3469     637.5757   -4040.9226    735.57987     14730.36   -19514.081    293.80966   -35.586872     1.040382       0.1375       -0.141      0.05175      -0.0165 
 1726000   -3364.3717    654.75715   -4019.1289    769.41768    14715.318   -19513.857    301.72728   -220.90161   0.98787429        0.137     -0.14136      0.05178     -0.01644 
 1727000   -3355.1793     666.0734   -4021.2527    729.95715    14755.244   -19513.965    306.94207   -1272.3468   0.98595945       0.1365     -0.14172      0.05181     -0.01638 
 1728000   -3318.5751    679.58951   -3998.1646    738.62707     14772.57   -19512.502     313.1706   -169.94378    1.0008394        0.136     -0.14208      0.05184     -0.01632 
 1729000   -3327.9375    663.17271   -3991.1102    773.20617    14739.764   -19510.844    305.60536    531.15372    1.0070269       0.1355     -0.14244      0.05187     -0.01626 
 1730000   -3362.1753    669.87111   -4032.0464    791.86687    14679.629   -19511.545    308.69214     897.3561     1.024866        0.135      -0.1428       0.0519      -0.0162 
 1731000   -3327.6406    673.48348   -4001.1241    718.51964    14785.296   -19512.335     310.3568   -836.67289   0.99948024       0.1345     -0.14316      0.05193     -0.01614 
 1732000   -3327.5278    700.93946   -4028.4672    764.62539    14713.373    -19511.62    323.00915   -105.32978   0.99193001        0.134     -0.14352      0.05196     -0.01608 
 1733000   -3385.0269    610.37232   -3995.3992    823.36648    14684.957   -19509.649    281.27372    1801.6889     1.024659       0.1335     -0.14388      0.05199     -0.01602 
 1734000   -3402.2721    665.65793     -4067.93    754.24775    14689.646   -19514.713    306.75061   -283.83762    1.0166495        0.133     -0.14424      0.05202     -0.01596 
 1735000   -3366.1547    642.48681   -4008.6416     732.1258    14763.091   -19509.283    296.07282   -646.33092    1.0056461       0.1325      -0.1446      0.05205      -0.0159 
 1736000   -3386.0344     626.3649   -4012.3993    776.47687    14716.971   -19512.738    288.64346    257.76455   0.99783636        0.132     -0.14496      0.05208     -0.01584 
 1737000   -3406.4766    668.89483   -4075.3715    761.22959    14670.861   -19513.438    308.24224   -189.98743    1.0079997       0.1315     -0.14532      0.05211     -0.01578 
 1738000    -3338.194    638.91309   -3977.1071    726.92793    14799.427   -19508.398    294.42597   -335.31005     1.005683        0.131     -0.14568      0.05214     -0.01572 
 1739000   -3369.0981    639.01855   -4008.1167    727.85611    14767.972   -19511.133    294.47456   -1119.6979   0.99302424       0.1305     -0.14604      0.05217     -0.01566 
 1740000   -3340.2637    654.91133    -3995.175    719.32103    14790.383   -19510.586    301.79832   -94.585271    1.0246386         0.13      -0.1464       0.0522      -0.0156 
 1741000   -3270.2307    660.38515   -3930.6158    703.33352    14869.032   -19511.834    304.32079    63.678834     1.019186       0.1295     -0.14676      0.05223     -0.01554 
 1742000   -3344.2898       653.27   -3997.5598    776.64609    14733.898   -19514.399    301.04196     273.0514   0.99636073        0.129     -0.14712      0.05226     -0.01548 
 1743000   -3376.6581    611.99162   -3988.6497    710.13804    14808.504    -19511.59    282.01993   -1299.0723   0.98028081       0.1285     -0.14748      0.05229     -0.01542 
 1744000    -3334.256    645.34208   -3979.5981     702.3646     14824.09   -19513.833    297.38859   -1014.0389   0.99695221        0.128     -0.14784      0.05232     -0.01536 
 1745000   -3343.6595     678.9851   -4022.6446    761.64738    14720.318   -19512.281    312.89208   -134.67688   0.99740203       0.1275      -0.1482      0.05235      -0.0153 
 1746000   -3367.1335     652.0181   -4019.1516    803.87926    14682.976   -19511.528    300.46505    732.95795    1.0151814        0.127     -0.14856      0.05238     -0.01524 
 1747000   -3329.4447    651.84448   -3981.2892    747.41465    14777.815   -19511.452    300.38505   -209.91766   0.99793125       0.1265     -0.14892      0.05241     -0.01518 
 1748000   -3396.0635    643.56814   -4039.6317     775.9162    14687.925   -19512.389    296.57112    688.75804    1.0334546        0.126     -0.14928      0.05244     -0.01512 
 1749000   -3425.9781    620.93175   -4046.9099    776.75381    14680.765    -19512.36    286.13975    131.16516    1.0122039       0.1255     -0.14964      0.05247     -0.01506 
 1750000   -3353.4239    652.69868   -4006.1226    731.34868    14772.003   -19514.223    300.77868   -350.10845    1.0223883        0.125        -0.15       0.0525       -0.015 
 1751000   -3353.6536    664.78139    -4018.435    713.11704    14775.532   -19513.407    306.34668   -1131.7756    1.0074101       0.1245     -0.15036      0.05253     -0.01494 
 1752000   -3323.5053    633.69944   -3957.2047    716.47892    14831.921   -19510.973    292.02339   -159.15186    1.0211918        0.124     -0.15072      0.05256     -0.01488 
 1753000   -3391.2448    649.42286   -4040.6677    774.12942     14695.37   -19514.991    299.26911    486.48069    1.0198645       0.1235     -0.15108      0.05259     -0.01482 
 1754000     -3351.91    665.36451   -4017.2745    770.24303    14715.253   -19509.106    306.61539     532.9563     1.031217        0.123     -0.15144      0.05262     -0.01476 
 1755000     -3398.43    644.85858   -4043.2885     779.3272    14684.703    -19513.29    297.16578    520.25384    1.0378448       0.1225      -0.1518      0.05265      -0.0147 
 1756000   -3397.8461    624.68992    -4022.536    733.96652    14751.129   -19512.921     287.8716   -119.95277    1.0337889        0.122     -0.15216      0.05268     -0.01464 
 1757000   -3345.5224    641.31608   -3986.8385     772.1242    14746.746   -19510.759    295.53332    635.01306    1.0074243       0.1215     -0.15252      0.05271     -0.01458 
 1758000   -3366.3268    631.30451   -3997.6313    750.94554    14755.967   -19512.434    290.91975   -32.915326    1.0099568        0.121     -0.15288      0.05274     -0.01452 
 1759000   -3454.5066    606.27426   -4060.7809    802.58635    14642.026   -19512.252    279.38523   -14.124883    1.0123277       0.1205     -0.15324      0.05277     -0.01446 
 1760000   -3352.5278    675.25986   -4027.7877    753.46863    14721.668   -19510.504     311.1754    -308.6011     1.002719         0.12      -0.1536       0.0528      -0.0144 
 1761000   -3381.5919    672.28632   -4053.8782    739.13283    14714.109   -19513.484    309.80512   -487.35969    1.0111184       0.1195     -0.15396      0.05283     -0.01434 
 1762000   -3379.9008    667.99278   -4047.8936    751.97942    14710.407   -19513.894    307.82656    -334.3455    1.0088171        0.119     -0.15432      0.05286     -0.01428 
 1763000   -3425.0741    629.35984   -4054.4339      700.694    14751.451   -19511.504     290.0236   -1754.7353   0.99421788       0.1185     -0.15468      0.05289     -0.01422 
 1764000   -3349.8461    651.68199   -4001.5281    778.54516    14729.516   -19513.772    300.31017    573.13489    1.0054949        0.118     -0.15504      0.05292     -0.01416 
 1765000   -3391.4917    623.76703   -4015.2588      774.959    14713.623   -19511.495    287.44631    489.37114    1.0170018       0.1175      -0.1554      0.05295      -0.0141 
 1766000   -3358.3643     640.4046   -3998.7689    733.06238    14775.395   -19513.334    295.11328   -534.68112   0.99443774        0.117     -0.15576      0.05298     -0.01404 
 1767000   -3327.4403     677.2285   -4004.6688    722.05985      14779.3   -19511.512    312.08259   -801.11874    1.0024749       0.1165     -0.15612      0.05301     -0.01398 
 1768000   -3341.4133    630.94992   -3972.3632    756.04004    14773.876   -19509.287    290.75635    132.67376    1.0079939        0.116     -0.15648      0.05304     -0.01392 
 1769000   -3361.5496     635.7591   -3997.3087    735.11934    14770.526    -19511.66    292.97253   -289.11872   0.99350274       0.1155     -0.15684      0.05307     -0.01386 
 1770000   -3307.9889    672.77242   -3980.7613    784.08425    14740.201   -19513.176    310.02913    731.55466   0.99939901        0.115      -0.1572       0.0531      -0.0138 
 1771000    -3376.943    646.15452   -4023.0975    782.48114    14701.335   -19513.805    297.76298    302.87499    1.0006198       0.1145     -0.15756      0.05313     -0.01374 
 1772000   -3319.5525    664.37837   -3983.9308     756.3085    14767.238     -19512.1    306.16095   -128.27837   0.98901147        0.114     -0.15792      0.05316     -0.01368 
 1773000   -3409.3665    630.75659   -4040.1231     750.3599    14717.261   -19512.984    290.66726   -283.61389   0.99721258       0.1135     -0.15828      0.05319     -0.01362 
 1774000   -3348.5671    670.31422   -4018.8813    797.11151    14686.155    -19510.55    308.89633    655.58663   0.99591249        0.113     -0.15864      0.05322     -0.01356 
 1775000   -3431.4644    597.66129   -4029.1257    781.69444    14694.631   -19512.269    275.41618     81.62697    1.0092265       0.1125       -0.159      0.05325      -0.0135 
 1776000   -3367.8655    658.30295   -4026.1685    747.87391     14729.78   -19509.563    303.36126   -21.610828    1.0165193        0.112     -0.15936      0.05328     -0.01344 
 1777000   -3344.4305     634.0003   -3978.4308    708.85258    14818.587   -19510.671    292.16204    -596.6658    1.0014078       0.1115     -0.15972      0.05331     -0.01338 
 1778000   -3338.5222    665.52309   -4004.0453    752.32071    14747.162   -19508.769    306.68847    11.709462    1.0101079        0.111     -0.16008      0.05334     -0.01332 
 1779000   -3329.1812     675.3174   -4004.4986    657.76487    14845.605   -19512.524    311.20191   -2057.9737   0.99118826       0.1105     -0.16044      0.05337     -0.01326 
 1780000   -3312.1361    647.29952   -3959.4356    703.90769    14841.012   -19509.941    298.29063   -611.32384    1.0034581         0.11      -0.1608       0.0534      -0.0132 
 1781000   -3315.0614    654.64802   -3969.7095    746.69132    14792.389   -19514.133    301.67698    684.42532    1.0227832       0.1095     -0.16116      0.05343     -0.01314 
 1782000   -3370.7573    672.59721   -4043.3545    703.18671    14759.452   -19511.287    309.94839   -1516.7525   0.98493669        0.109     -0.16152      0.05346     -0.01308 
 1783000   -3353.8472    658.80097   -4012.6482    848.24763    14645.396   -19513.245    303.59076    1270.3037   0.99202446       0.1085     -0.16188      0.05349     -0.01302 
 1784000   -3408.2201    636.25946   -4044.4795    815.68675    14650.144   -19514.591    293.20311    1173.8344    1.0214198        0.108     -0.16224      0.05352     -0.01296 
 1785000   -3343.5282    675.00877   -4018.5369     781.3682    14707.097   -19515.082    311.05969     640.5065     1.014489       0.1075      -0.1626      0.05355      -0.0129 
 1786000   -3371.8963     630.6674   -4002.5637    776.25751    14730.203   -19513.229    290.62616  -0.56834711   0.99413066        0.107     -0.16296      0.05358     -0.01284 
 1787000   -3348.7673    649.17481   -3997.9421    757.95628    14751.434   -19511.566     299.1548   -154.93134    1.0056804       0.1065     -0.16332      0.05361     -0.01278 
 1788000   -3367.2585    636.31143   -4003.5699    721.08207    14783.177   -19511.987    293.22706   -838.28919   0.99827207        0.106     -0.16368      0.05364     -0.01272 
 1789000   -3358.3182     661.0714   -4019.3896    791.48912    14698.711    -19514.09    304.63703    809.13641    1.0080564       0.1055     -0.16404      0.05367     -0.01266 
 1790000   -3358.2619    644.65583   -4002.9177    708.43233    14798.691    -19514.66    297.07235   -1012.9186    1.0021233        0.105      -0.1644       0.0537      -0.0126 
 1791000   -3335.8648    679.44831   -4015.3131    776.37892    14716.587   -19512.566    313.10553    526.01159    1.0208999       0.1045     -0.16476      0.05373     -0.01254 
 1792000   -3394.2483      598.299   -3992.5473    781.63978    14731.583   -19510.472    275.71005    568.13352     1.006532        0.104     -0.16512      0.05376     -0.01248 
 1793000   -3315.1722    645.67391   -3960.8461    749.46265    14796.734   -19512.148     297.5415    283.31107    1.0004486       0.1035     -0.16548      0.05379     -0.01242 
 1794000    -3303.812    663.65684   -3967.4688    758.18046    14781.563   -19512.465    305.82846   -311.66875   0.96955082        0.103     -0.16584      0.05382     -0.01236 
 1795000    -3359.156    645.71018   -4004.8662    804.66967    14699.138   -19512.659    297.55822    672.45366    1.0002532       0.1025      -0.1662      0.05385      -0.0123 
 1796000   -3407.5514    629.30023   -4036.8516    776.22605    14694.797   -19511.903    289.99614    104.07564    1.0061532        0.102     -0.16656      0.05388     -0.01224 
 1797000   -3358.4969    632.65663   -3991.1535    729.52814    14783.257   -19510.153    291.54284   -737.07576   0.98167943       0.1015     -0.16692      0.05391     -0.01218 
 1798000   -3366.1384    647.10689   -4013.2453    773.68912    14720.016   -19510.631    298.20185   -109.21373   0.97967235        0.101     -0.16728      0.05394     -0.01212 
 1799000   -3410.8033    646.84527   -4057.6486    755.48118     14691.78   -19510.374     298.0813   -965.73905   0.98605019       0.1005     -0.16764      0.05397     -0.01206 
 1800000   -3345.6101    677.90668   -4023.5168    767.29751    14720.655   -19515.116    312.39511   -149.28613   0.98544357          0.1       -0.168        0.054       -0.012 
 1801000   -3370.7055    657.36324   -4028.0688    736.13987    14744.721   -19513.001    302.92822   -360.88079    1.0036515       0.0995     -0.16836      0.05403     -0.01194 
 1802000   -3358.9185    667.87843   -4026.7969     733.0881    14749.938   -19513.442    307.77386   -606.53265   0.99175702        0.099     -0.16872      0.05406     -0.01188 
 1803000   -3381.3657    646.51936    -4027.885    777.29297    14704.516   -19514.153    297.93111    254.99879    1.0143155       0.0985     -0.16908      0.05409     -0.01182 
 1804000   -3448.9174    627.34373   -4076.2611     802.4692    14626.737   -19511.858    289.09453    552.76919    1.0305052        0.098     -0.16944      0.05412     -0.01176 
 1805000   -3370.6215    666.46413   -4037.0856    801.51589    14667.393   -19512.862    307.12212    754.50541    1.0094608       0.0975      -0.1698      0.05415      -0.0117 
 1806000   -3339.4766    676.81519   -4016.2918    759.03288     14731.71   -19513.084    311.89213    424.34194    1.0276569        0.097     -0.17016      0.05418     -0.01164 
 1807000   -3395.7875    629.75849    -4025.546    731.72769    14748.378   -19512.106    290.20731   -402.66875    1.0130667       0.0965     -0.17052      0.05421     -0.01158 
 1808000   -3385.8702     661.9053   -4047.7755    779.37112    14680.617   -19512.887    305.02131    438.02459    1.0285394        0.096     -0.17088      0.05424     -0.01152 
 1809000   -3372.8792     657.4232   -4030.3024    746.05994    14730.756   -19510.809    302.95585   -433.02006     1.000426       0.0955     -0.17124      0.05427     -0.01146 
 1810000   -3317.1917    672.94511   -3990.1368    805.18027    14712.929   -19512.957    310.10871    766.84896   0.99711828        0.095      -0.1716       0.0543      -0.0114 
 1811000   -3330.5802    636.34883    -3966.929    726.57778    14812.125    -19512.85    293.24429   -582.75074   0.99554768       0.0945     -0.17196      0.05433     -0.01134 
 1812000   -3302.9363    627.65394   -3930.5902    713.43792    14861.305   -19511.298    289.23749   -780.36661   0.98090607        0.094     -0.17232      0.05436     -0.01128 
 1813000   -3302.6936    677.45516   -3980.1487    736.60327    14792.095    -19513.48    312.18704    213.26384    1.0080386       0.0935     -0.17268      0.05439     -0.01122 
 1814000    -3350.852    644.63588   -3995.4879    750.51638    14761.737   -19512.866    297.06316   -240.12219    1.0029131        0.093     -0.17304      0.05442     -0.01116 
 1815000   -3387.9021    657.56794   -4045.4701    738.93178    14725.746   -19514.911    303.02255    -759.3043    1.0056314       0.0925      -0.1734      0.05445      -0.0111 
 1816000   -3344.2859    638.47969   -3982.7655    726.82823     14793.24   -19510.056    294.22624   -239.42932    1.0122599        0.092     -0.17376      0.05448     -0.01104 
 1817000   -3362.5478    648.78581   -4011.3336    796.34226    14700.613   -19512.177    298.97554    975.77511    1.0145016       0.0915     -0.17412      0.05451     -0.01098 
 1818000   -3328.0694      637.933   -3966.0024    776.77027    14768.497   -19514.558    293.97431    916.17923    1.0227569        0.091     -0.17448      0.05454     -0.01092 
 1819000   -3397.5063    636.75425   -4034.2606    780.70265     14690.72   -19511.223    293.43112    110.01649    1.0183009       0.0905     -0.17484      0.05457     -0.01086 
 1820000   -3401.5892    628.03968   -4029.6289    809.79139    14669.052   -19513.863    289.41524    1067.0087    1.0169338         0.09      -0.1752       0.0546      -0.0108 
 1821000   -3303.3196    671.19296   -3974.5126    740.16705    14793.326   -19513.325    309.30128   -132.24627   0.99401718       0.0895     -0.17556      0.05463     -0.01074 
 1822000   -3346.3279    658.59774   -4004.9256     780.4146    14722.105   -19511.848    303.49711    369.12386    1.0121462        0.089     -0.17592      0.05466     -0.01068 
 1823000   -3434.4207    617.41059   -4051.8313    743.49422    14708.611   -19510.724    284.51711   -781.50636    1.0208977       0.0885     -0.17628      0.05469     -0.01062 
 1824000   -3356.5936    657.52298   -4014.1165    818.53352    14673.678   -19511.352    303.00183    1931.4885    1.0297286        0.088     -0.17664      0.05472     -0.01056 
 1825000   -3293.3538    686.58292   -3979.9368    723.64503    14801.449   -19512.543    316.39333   -396.10878    1.0076708       0.0875       -0.177      0.05475      -0.0105 
 1826000   -3341.5038    644.32054   -3985.8244    750.12513    14772.798    -19514.05    296.91784   -157.23825   0.99189804        0.087     -0.17736      0.05478     -0.01044 
 1827000   -3420.6463     619.6783   -4040.3246    839.34105     14627.02    -19512.14    285.56212    1005.5318   0.98737569       0.0865     -0.17772      0.05481     -0.01038 
 1828000   -3385.7755     662.1815    -4047.957    760.55328    14698.484   -19512.258    305.14859   -604.12613   0.97289234        0.086     -0.17808      0.05484     -0.01032 
 1829000   -3334.2806    653.91412   -3988.1947    753.48899    14768.198   -19513.352    301.33878   -60.554825   0.99593361       0.0855     -0.17844      0.05487     -0.01026 
 1830000   -3304.9786    649.81271   -3954.7913    740.31838    14813.153   -19512.801    299.44876   -322.23964   0.99018789        0.085      -0.1788       0.0549      -0.0102 
 1831000   -3336.7654     660.5327   -3997.2981    763.69788    14746.015   -19511.957    304.38878    180.56296   0.99256827       0.0845     -0.17916      0.05493     -0.01014 
 1832000   -3356.9105    661.14021   -4018.0507     752.3961     14737.66   -19513.774    304.66874    372.97016     1.012001        0.084     -0.17952      0.05496     -0.01008 
 1833000    -3305.925    649.73092   -3955.6559    760.22414    14794.706    -19513.77    299.41107    -63.81761   0.97498773       0.0835     -0.17988      0.05499     -0.01002 
 1834000   -3394.7364    644.67057    -4039.407    808.66204    14659.484   -19513.114    297.07914    653.66687    1.0145619        0.083     -0.18024      0.05502     -0.00996 
 1835000   -3327.5197    674.88653   -4002.4062    750.44187    14752.767   -19511.842    311.00336   -465.71589    0.9898149       0.0825      -0.1806      0.05505      -0.0099 
 1836000   -3398.5294     624.5188   -4023.0482    735.38987    14747.807   -19511.531    287.79274   -831.22253   0.98974661        0.082     -0.18096      0.05508     -0.00984 
 1837000   -3410.0704    640.37713   -4050.4475     771.4961    14683.248    -19508.48    295.10062    107.20051    1.0163958       0.0815     -0.18132      0.05511     -0.00978 
 1838000   -3333.1763    654.45673    -3987.633    764.77651    14755.511   -19512.615    301.58883    83.175487    1.0034246        0.081     -0.18168      0.05514     -0.00972 
 1839000   -3455.5084    615.51728   -4071.0257    777.60292    14661.952   -19514.506    283.64463    312.84568    1.0330385       0.0805     -0.18204      0.05517     -0.00966 
 1840000   -3372.6113    652.27613   -4024.8874    754.78425    14732.377   -19515.944    300.58396   -124.04067    1.0008207         0.08      -0.1824       0.0552      -0.0096 
 1841000   -3368.6876    634.69825   -4003.3859    782.14022    14724.124    -19513.74    292.48367    368.85279    1.0030617       0.0795     -0.18276      0.05523     -0.00954 
 1842000   -3399.2761    667.96504   -4067.2411    762.87951    14680.484   -19514.734    307.81378   -15.004694     1.030442        0.079     -0.18312      0.05526     -0.00948 
 1843000   -3331.5971    673.60279   -4005.1999    735.07874     14767.98   -19513.148    310.41178   -136.47248    1.0195214       0.0785     -0.18348      0.05529     -0.00942 
 1844000   -3443.5448     646.8241   -4090.3689    793.59452    14625.857   -19515.535    298.07154    438.40654    1.0314199        0.078     -0.18384      0.05532     -0.00936 
 1845000   -3420.7404    639.42764   -4060.1681    751.68231    14694.456   -19511.965    294.66308   -471.09957    1.0177643       0.0775      -0.1842      0.05535      -0.0093 
 1846000   -3392.1928     661.2789   -4053.4717    732.79546    14721.851   -19512.617    304.73265   -814.43426    1.0038908        0.077     -0.18456      0.05538     -0.00924 
 1847000   -3362.0254    651.88806   -4013.9135    757.86631    14735.439     -19512.6    300.40513    -156.0086   0.99152352       0.0765     -0.18492      0.05541     -0.00918 
 1848000   -3331.6296    700.56128   -4032.1909    728.09187      14747.2    -19512.16    322.83488   -356.97619    1.0123588        0.076     -0.18528      0.05544     -0.00912 
 1849000   -3354.4372    649.78033   -4004.2175    779.37899    14723.959    -19511.26    299.43384    187.42228    1.0013718       0.0755     -0.18564      0.05547     -0.00906 
 1850000   -3346.8145    666.67086   -4013.4853     755.6233    14739.178   -19511.057    307.21739   -196.72646    1.0008688        0.075       -0.186       0.0555       -0.009 
 1851000   -3344.1915    670.66698   -4014.8585    816.19875    14676.401   -19513.659    309.05889    1211.6058    1.0058484       0.0745     -0.18636      0.05553     -0.00894 
 1852000   -3405.2036    622.01649   -4027.2201    834.10414    14644.717   -19511.972    286.63962    1496.7425    1.0051386        0.074     -0.18672      0.05556     -0.00888 
 1853000   -3337.7295    686.37123   -4024.1008    764.38925    14713.094   -19509.243    316.29578   -500.17284   0.98530285       0.0735     -0.18708      0.05559     -0.00882 
 1854000   -3402.6783    675.85454   -4078.5328    797.74552    14632.585   -19513.889    311.44944   -36.605589   0.99671271        0.073     -0.18744      0.05562     -0.00876 
 1855000   -3300.9908    685.99597   -3986.9867    775.49535    14745.914   -19513.345    316.12284    779.01162        1.005       0.0725      -0.1878      0.05565      -0.0087 
 1856000   -3429.2971      639.214   -4068.5111    755.57202    14688.439   -19515.794    294.56463   -502.62613    1.0142758        0.072     -0.18816      0.05568     -0.00864 
 1857000   -3275.2634    655.85084   -3931.1143     749.1683    14823.872   -19511.772    302.23127    300.29191    1.0016987       0.0715     -0.18852      0.05571     -0.00858 
 1858000   -3307.8038    630.76884   -3938.5726    730.05176    14838.597   -19512.411    290.67291    56.902521    1.0076222        0.071     -0.18888      0.05574     -0.00852 
 1859000   -3395.9601    633.16652   -4029.1266    784.46124    14689.306   -19509.619    291.77781     284.2668   0.99654028       0.0705     -0.18924      0.05577     -0.00846 
 1860000   -3304.5371    687.08943   -3991.6265    753.08839    14761.832   -19511.633    316.62674   -186.49578    0.9912273         0.07      -0.1896       0.0558      -0.0084 
 1861000   -3334.0771    675.86114   -4009.9383     699.8047    14796.565   -19511.313    311.45248   -1209.3449    1.0127765       0.0695     -0.18996      0.05583     -0.00834 
 1862000   -3334.8855    692.63195   -4027.5174    777.66105    14700.076   -19512.754    319.18086    199.18322    1.0041603        0.069     -0.19032      0.05586     -0.00828 
 1863000   -3339.4635    637.49492   -3976.9584    715.28078    14815.418   -19514.331    293.77244   -876.06994   0.98272763       0.0685     -0.19068      0.05589     -0.00822 
 1864000   -3371.6786     630.5348   -4002.2134    762.43756    14742.001   -19514.114    290.56506    223.26559    1.0183985        0.068     -0.19104      0.05592     -0.00816 
 1865000   -3349.2785    647.58444   -3996.8629    750.94192    14763.489   -19514.381    298.42192    53.590531    1.0165929       0.0675      -0.1914      0.05595      -0.0081 
 1866000   -3323.3531    641.35645   -3964.7095    760.99736    14780.248   -19512.797    295.55192    390.47064    1.0072587        0.067     -0.19176      0.05598     -0.00804 
 1867000   -3390.6505    620.65118   -4011.3017    759.57556     14735.85   -19511.986    286.01045    91.475428    1.0037978       0.0665     -0.19212      0.05601     -0.00798 
 1868000   -3327.0173    656.18341   -3983.2007    735.18362    14790.691   -19514.405    302.38453   -239.75694     1.002507        0.066     -0.19248      0.05604     -0.00792 
 1869000   -3339.0292    684.10785    -4023.137    732.16829    14749.529   -19511.376    315.25276   -766.26719    1.0008477       0.0655     -0.19284      0.05607     -0.00786 
 1870000   -3359.6372    656.63525   -4016.2725     798.0543    14692.992   -19513.327    302.59275    634.88152    1.0027824        0.065      -0.1932       0.0561      -0.0078 
 1871000   -3354.5205    653.42798   -4007.9485    803.36816    14692.568   -19510.231    301.11476    830.45131    1.0111658       0.0645     -0.19356      0.05613     -0.00774 
 1872000   -3350.0045    675.28162   -4025.2861    798.62453    14682.466   -19512.057    311.18543    361.75151   0.99390649        0.064     -0.19392      0.05616     -0.00768 
 1873000    -3294.797    665.27593   -3960.0729    717.57641    14829.467   -19513.209    306.57457   -680.62942   0.98300225       0.0635     -0.19428      0.05619     -0.00762 
 1874000    -3375.837    640.36371   -4016.2008    763.20552    14726.021   -19511.572    295.09444    560.91537    1.0218447        0.063     -0.19464      0.05622     -0.00756 
 1875000   -3345.5004     695.1924   -4040.6928    761.61501     14707.19   -19514.083    320.36077    194.61538    1.0113647       0.0625       -0.195      0.05625      -0.0075 
 1876000   -3375.0841    623.05793   -3998.1421    738.09829    14774.351   -19515.134    287.11954   -704.83697    0.9898716        0.062     -0.19536      0.05628     -0.00744 
 1877000   -3399.0338    619.34368   -4018.3775    798.98602    14689.303   -19513.248    285.40793    178.03908    0.9834578       0.0615     -0.19572      0.05631     -0.00738 
 1878000   -3380.3178     664.8781   -4045.1959    753.76036    14707.131    -19512.22    306.39124    104.05456    1.0223021        0.061     -0.19608      0.05634     -0.00732 
 1879000   -3416.0335    658.60391   -4074.6374    796.56008    14636.984   -19513.272    303.49995    776.12632    1.0375098       0.0605     -0.19644      0.05637     -0.00726 
 1880000   -3373.1204    641.63359    -4014.754    696.77407    14798.483   -19515.907    295.67963   -1439.0649    1.0117017         0.06      -0.1968       0.0564      -0.0072 
 1881000   -3389.7006    645.68856   -4035.3892    749.41036    14717.788   -19508.707    297.54826    102.94063    1.0270292       0.0595     -0.19716      0.05643     -0.00714 
 1882000   -3388.2678    662.83771   -4051.1055    782.73422    14672.554   -19513.507    305.45098    626.08506    1.0168835        0.059     -0.19752      0.05646     -0.00708 
 1883000   -3364.8776    654.93056   -4019.8082    848.44339    14641.931   -19514.603    301.80718    1677.7578   0.99734323       0.0585     -0.19788      0.05649     -0.00702 
 1884000   -3331.3722    658.99089   -3990.3631    721.67566    14789.773   -19509.561    303.67828   -437.53817    1.0182305        0.058     -0.19824      0.05652     -0.00696 
 1885000   -3393.4228    628.20964   -4021.6325     767.2767    14716.731   -19511.184    289.49357    162.21564    1.0095124       0.0575      -0.1986      0.05655      -0.0069 
 1886000   -3410.7442    661.68549   -4072.4296    816.73728    14617.939   -19513.145    304.92001    919.44327    1.0079542        0.057     -0.19896      0.05658     -0.00684 
 1887000    -3397.503     649.0555   -4046.5585    762.54842    14696.934   -19512.134    299.09982   -1035.2614    0.9650423       0.0565     -0.19932      0.05661     -0.00678 
 1888000   -3394.3936    636.61864   -4031.0122    749.59146    14729.943    -19516.35    293.36863   -374.51654   0.99685784        0.056     -0.19968      0.05664     -0.00672 
 1889000   -3353.1635    649.47949    -4002.643    724.05843    14777.726    -19511.82    299.29521   -744.14287   0.99557552       0.0555     -0.20004      0.05667     -0.00666 
 1890000   -3389.8178    687.02853   -4076.8463    775.08081     14652.17   -19511.418    316.59867    56.377202    1.0123354        0.055      -0.2004       0.0567      -0.0066 
 1891000   -3368.7851    671.62031   -4040.4054    750.13738    14718.195   -19513.415    309.49821   -385.79338    1.0155045       0.0545     -0.20076      0.05673     -0.00654 
 1892000   -3344.7175    650.80334   -3995.5208    689.40894    14823.392   -19513.916    299.90527   -1698.9011   0.99308704        0.054     -0.20112      0.05676     -0.00648 
 1893000   -3348.6824    673.66254   -4022.3449    723.95992    14758.093   -19510.356    310.43931    -529.0114     1.002171       0.0535     -0.20148      0.05679     -0.00642 
 1894000   -3365.4165    640.35066   -4005.7672    724.61454    14779.278   -19514.001    295.08843   -721.72689   0.99770389        0.053     -0.20184      0.05682     -0.00636 
 1895000   -3402.0548    654.88729    -4056.942    772.98573    14676.884   -19511.654    301.78724    34.437001    1.0209836       0.0525      -0.2022      0.05685      -0.0063 
 1896000   -3357.6037    667.42943   -4025.0331    735.32564    14747.702   -19512.935    307.56696   -596.64205   0.99977884        0.052     -0.20256      0.05688     -0.00624 
 1897000   -3369.9489    656.90189   -4026.8508    795.13108    14683.025   -19509.766    302.71562    538.58558   0.99148534       0.0515     -0.20292      0.05691     -0.00618 
 1898000   -3314.0382    644.87681    -3958.915    724.43084    14821.363   -19511.129    297.17418   -514.55857   0.99244773        0.051     -0.20328      0.05694     -0.00612 
 1899000   -3292.8915    715.00682   -4007.8983    748.65212    14752.171   -19514.451    329.49172   -372.85457   0.99704543       0.0505     -0.20364      0.05697     -0.00606 
 1900000   -3367.1955    634.54691   -4001.7424    743.29191    14762.308   -19512.826    292.41393   -427.88865    1.0003735         0.05       -0.204        0.057       -0.006 
 1901000   -3405.3734    609.89497   -4015.2683    746.58224    14744.394   -19513.452    281.05374   -338.31138   0.99614645       0.0495     -0.20436      0.05703     -0.00594 
 1902000   -3425.8527    639.79464   -4065.6473    804.50843    14637.784   -19513.621     294.8322    777.55477     1.034818        0.049     -0.20472      0.05706     -0.00588 
 1903000   -3359.6975    685.84673   -4045.5442    739.34366    14721.481   -19512.268    316.05407   -943.23376   0.99216574       0.0485     -0.20508      0.05709     -0.00582 
 1904000   -3375.7405    638.97529   -4014.7158    744.35743    14754.195   -19517.761    294.45463   -457.82533   0.98398253        0.048     -0.20544      0.05712     -0.00576 
 1905000   -3361.0041    648.47319   -4009.4772    795.30455    14704.035   -19513.896    298.83148    944.93777    1.0079192       0.0475      -0.2058      0.05715      -0.0057 
 1906000   -3343.7798    637.51086   -3981.2906    788.14441     14736.94   -19512.566    293.77978    826.29251    1.0047524        0.047     -0.20616      0.05718     -0.00564 
 1907000   -3361.5893    675.45814   -4037.0474    812.04274      14656.5   -19512.042    311.26677    563.86178   0.99270516       0.0465     -0.20652      0.05721     -0.00558 
 1908000   -3351.8717    641.68386   -3993.5556    774.33426    14735.811    -19509.42     295.7028    616.49628    1.0045389        0.046     -0.20688      0.05724     -0.00552 
 1909000   -3335.5204    665.44366   -4000.9641    751.01042     14761.11   -19515.301    306.65186    6.5370044   0.99445299       0.0455     -0.20724      0.05727     -0.00546 
 1910000   -3367.5367    654.84619   -4022.3829    748.75672    14736.653   -19513.822     301.7683   -603.79436   0.99760776        0.045      -0.2076       0.0573      -0.0054 
 1911000   -3356.2363    659.31287   -4015.5492    770.17019     14723.94   -19515.042    303.82665    331.89585    1.0010995       0.0445     -0.20796      0.05733     -0.00534 
 1912000   -3417.4875    632.47626   -4049.9637    740.27012    14719.171   -19515.975    291.45972   -455.10719    1.0050657        0.044     -0.20832      0.05736     -0.00528 
 1913000   -3388.3221    642.52482    -4030.847    768.17415     14708.62    -19514.71    296.09033    64.351984    1.0165019       0.0435     -0.20868      0.05739     -0.00522 
 1914000   -3407.1624    629.04582   -4036.2083    710.68417    14761.311   -19514.691     289.8789   -1556.9291   0.98218933        0.043     -0.20904      0.05742     -0.00516 
 1915000   -3400.4163    647.59398   -4048.0103      764.151    14695.809   -19513.922    298.42632    -473.6418    1.0029582       0.0425      -0.2094      0.05745      -0.0051 
 1916000   -3382.4959    635.26612   -4017.7621    747.34618    14741.643   -19513.898    292.74535    22.757241    1.0073167        0.042     -0.20976      0.05748     -0.00504 
 1917000   -3431.5758    634.11451   -4065.6903    760.96373    14679.443   -19513.639    292.21467     -440.202    1.0067761       0.0415     -0.21012      0.05751     -0.00498 
 1918000   -3424.8339    633.04517    -4057.879    722.38856    14726.366   -19513.555    291.72189   -1130.5894    1.0158187        0.041     -0.21048      0.05754     -0.00492 
 1919000    -3378.826    631.21757   -4010.0436    713.13519    14783.176   -19513.946    290.87969   -912.96669    1.0099382       0.0405     -0.21084      0.05757     -0.00486 
 1920000   -3360.4859    658.43125   -4018.9171     782.3485    14707.411   -19512.066    303.42038    776.36864    1.0060219         0.04      -0.2112       0.0576      -0.0048 
 1921000   -3368.9105    671.10143   -4040.0119    801.32302    14665.935   -19512.695     309.2591    843.91576    1.0279755       0.0395     -0.21156      0.05763     -0.00474 
 1922000   -3337.1715    621.80936   -3958.9808    691.38218    14860.617   -19515.108    286.54417   -940.28987    1.0168103        0.039     -0.21192      0.05766     -0.00468 
 1923000   -3362.1375    660.78444   -4022.9219    791.91608    14695.798   -19515.516    304.50479     936.8575    1.0242035       0.0385     -0.21228      0.05769     -0.00462 
 1924000   -3391.3059    667.44228   -4058.7482    768.48046    14680.909   -19514.852    307.57288   -39.130953    1.0063643        0.038     -0.21264      0.05772     -0.00456 
 1925000   -3290.7103    680.74629   -3971.4566     683.4031    14854.506   -19515.582    313.70367   -1791.9775    0.9851916       0.0375       -0.213      0.05775      -0.0045 
 1926000   -3351.9911    657.83886   -4009.8299    758.50586    14737.669   -19512.354     303.1474   -262.41319    1.0047198        0.037     -0.21336      0.05778     -0.00444 
 1927000   -3396.0523     655.0783   -4051.1306    757.91098    14699.614     -19512.2    301.87527   -208.00882    1.0031562       0.0365     -0.21372      0.05781     -0.00438 
 1928000   -3380.2733    680.60244   -4060.8757    776.69088    14671.022   -19514.049    313.63738    373.35676    1.0258711        0.036     -0.21408      0.05784     -0.00432 
 1929000   -3365.9441    691.36722   -4057.3113    827.97406    14621.262   -19513.483    318.59804    1711.8575    1.0562509       0.0355     -0.21444      0.05787     -0.00426 
 1930000   -3361.0883    647.97522   -4009.0635    721.40457    14775.118   -19512.609      298.602   -630.03557    1.0214544        0.035      -0.2148       0.0579      -0.0042 
 1931000    -3422.852    635.64621   -4058.4982    755.57814    14694.339   -19513.926    292.92051   -155.92944    1.0100235       0.0345     -0.21516      0.05793     -0.00414 
 1932000   -3417.3254    653.21977   -4070.5452    793.41539    14646.312   -19514.792    301.01881    229.29891    1.0067909        0.034     -0.21552      0.05796     -0.00408 
 1933000   -3379.8497    644.54053   -4024.3902    806.43938    14678.163   -19514.801    297.01922     801.4932    1.0143301       0.0335     -0.21588      0.05799     -0.00402 
 1934000   -3382.4366    658.50997   -4040.9466    693.39655    14774.338   -19513.826    303.45666   -1563.9017    1.0168434        0.033     -0.21624      0.05802     -0.00396 
 1935000    -3447.501    644.75586   -4092.2568    768.34506    14646.703   -19513.255    297.11845   -377.04136    1.0110739       0.0325      -0.2166      0.05805      -0.0039 
 1936000   -3370.4951    694.26279   -4064.7579    801.29323    14644.189   -19515.145    319.93239     800.7963    1.0149963        0.032     -0.21696      0.05808     -0.00384 
 1937000     -3363.49    681.26464   -4044.7547    719.81561     14744.05   -19511.929    313.94254   -1153.9336   0.99318823       0.0315     -0.21732      0.05811     -0.00378 
 1938000   -3375.5892    655.78657   -4031.3758    813.09493    14665.707   -19513.478    302.20166    515.39207   0.99176515        0.031     -0.21768      0.05814     -0.00372 
 1939000   -3347.9174    654.36567   -4002.2831    719.75832    14785.213   -19510.983    301.54687   -805.08436   0.99837651       0.0305     -0.21804      0.05817     -0.00366 
 1940000   -3357.2522    641.54314   -3998.7954    761.65568    14746.413    -19510.67    295.63795    152.69921      1.01035         0.03      -0.2184       0.0582      -0.0036 
 1941000   -3382.0593    658.05416   -4040.1135    785.71607     14682.52   -19513.803    303.24661    653.11461    1.0313916       0.0295     -0.21876      0.05823     -0.00354 
 1942000   -3368.7008    650.36817   -4019.0689    751.75036    14738.699   -19511.902    299.70473   -121.04492   0.99583306        0.029     -0.21912      0.05826     -0.00348 
 1943000   -3394.8867    637.82653   -4032.7133    749.13685    14726.513   -19512.612    293.92525   -214.44073    1.0139293       0.0285     -0.21948      0.05829     -0.00342 
 1944000   -3351.1804    664.83024   -4016.0107    755.73546    14739.681    -19515.13    306.36919   -333.47662   0.99272548        0.028     -0.21984      0.05832     -0.00336 
 1945000   -3368.1058      635.294   -4003.3998    795.91797     14710.48   -19512.182     292.7582    187.74393   0.97908394       0.0275      -0.2202      0.05835      -0.0033 
 1946000    -3399.432    648.17489   -4047.6069    774.78755    14686.437   -19512.858    298.69402    81.297752   0.99832353        0.027     -0.22056      0.05838     -0.00324 
 1947000   -3339.2428    676.86316   -4016.1059     758.2764    14734.667   -19511.701    311.91423    240.25205    1.0087668       0.0265     -0.22092      0.05841     -0.00318 
 1948000   -3319.0831    663.81983   -3982.9029    723.41993    14799.666   -19512.219    305.90357   -684.52878    1.0147301        0.026     -0.22128      0.05844     -0.00312 
 1949000   -3347.2087    639.37501   -3986.5838    769.51883    14750.843   -19509.969    294.63883    223.28838   0.99678557       0.0255     -0.22164      0.05847     -0.00306 
 1950000    -3385.129    615.46576   -4000.5947      733.706    14775.222   -19513.055    283.62089   -451.98283   0.99642529        0.025       -0.222       0.0585       -0.003 
 1951000   -3386.5346    644.86456   -4031.3991    792.52367     14684.14   -19512.005    297.16854    345.33135    1.0048035       0.0245     -0.22236      0.05853     -0.00294 
 1952000   -3408.3129    653.90113   -4062.2141    723.42101    14727.676   -19518.183     301.3328   -1228.8635   0.99931433        0.024     -0.22272      0.05856     -0.00288 
 1953000   -3332.8408    666.22564   -3999.0665    728.18306    14783.242   -19513.884    307.01222   -363.62345    1.0045011       0.0235     -0.22308      0.05859     -0.00282 
 1954000   -3355.2076      652.529   -4007.7366    769.30421    14730.394   -19512.908    300.70049    390.47161   0.99602796        0.023     -0.22344      0.05862     -0.00276 
 1955000    -3311.454    649.93521   -3961.3892    686.01034    14860.788   -19514.167    299.50521   -1169.2651    1.0052481       0.0225      -0.2238      0.05865      -0.0027 
 1956000   -3374.0847    626.34577   -4000.4305    762.84775    14744.612   -19513.044    288.63465   -118.43152    0.9972557        0.022     -0.22416      0.05868     -0.00264 
 1957000   -3336.3777    680.01539   -4016.3931    732.10555    14758.861   -19513.015    313.36686   -482.98565    1.0039742       0.0215     -0.22452      0.05871     -0.00258 
 1958000   -3340.4316    636.82221   -3977.2538    723.68443    14809.013   -19513.572    293.46244   -343.64384    1.0101305        0.021     -0.22488      0.05874     -0.00252 
 1959000   -3301.0441    683.32107   -3984.3652    746.78377    14777.973   -19513.939    314.89019   -154.39831   0.99109792       0.0205     -0.22524      0.05877     -0.00246 
 1960000   -3366.3216    689.34543    -4055.667     730.5799    14720.562   -19512.244    317.66636   -982.45815    1.0111607         0.02      -0.2256       0.0588      -0.0024 
 1961000   -3364.6103    672.90566    -4037.516    758.28201    14714.256   -19514.273    310.09053   -288.03762   0.99151146       0.0195     -0.22596      0.05883     -0.00234 
 1962000   -3370.5285    634.10059   -4004.6291    743.88928    14761.728   -19513.841    292.20825   -182.40276    1.0007865        0.019     -0.22632      0.05886     -0.00228 
 1963000   -3319.6103    664.82078   -3984.4311    687.47057    14836.747   -19514.887    306.36483   -1818.1311   0.97504978       0.0185     -0.22668      0.05889     -0.00222 
 1964000   -3450.0922    636.10069   -4086.1929    801.65471    14619.432   -19513.165    293.12995       122.89    1.0058733        0.018     -0.22704      0.05892     -0.00216 
 1965000   -3383.0198    635.14834   -4018.1681    735.78473    14754.628   -19513.123    292.69108   -218.84875    1.0116609       0.0175      -0.2274      0.05895      -0.0021 
 1966000    -3350.082    664.57757   -4014.6595    782.32486     14711.24   -19513.239    306.25275     398.0497   0.99912187        0.017     -0.22776      0.05898     -0.00204 
 1967000   -3382.0014    650.42426   -4032.4257    807.02834    14666.785   -19511.314    299.73058    560.80377    1.0049448       0.0165     -0.22812      0.05901     -0.00198 
 1968000   -3360.9038    698.24583   -4059.1496    717.86043    14730.031   -19512.701    321.76786   -1020.1849    1.0164553        0.016     -0.22848      0.05904     -0.00192 
 1969000   -3375.9654     607.9969   -3983.9623    683.40537    14841.489   -19514.205    280.17906   -1270.4944   0.99511213       0.0155     -0.22884      0.05907     -0.00186 
 1970000    -3324.381     680.6495   -4005.0305    765.58538    14738.691   -19514.206    313.65907    215.23003    1.0022697        0.015      -0.2292       0.0591      -0.0018 
 1971000    -3378.422    670.82895    -4049.251    759.68696    14699.226   -19515.587    309.13353   -338.95286    1.0010231       0.0145     -0.22956      0.05913     -0.00174 
 1972000   -3314.9636    684.18635     -3999.15    715.71413    14791.022   -19509.538    315.28893   -714.38633   0.99430944        0.014     -0.22992      0.05916     -0.00168 
 1973000   -3355.8756    646.15861   -4002.0342    789.38644    14718.241   -19513.884    297.76487     596.5129     1.001709       0.0135     -0.23028      0.05919     -0.00162 
 1974000   -3350.6197    646.94585   -3997.5656    768.57552    14738.914   -19512.385    298.12764     580.2788    1.0119403        0.013     -0.23064      0.05922     -0.00156 
 1975000   -3383.9394    623.25227   -4007.1916    783.87537    14718.304   -19513.527    287.20909    211.70391   0.99268413       0.0125       -0.231      0.05925      -0.0015 
 1976000   -3340.5208    660.11215   -4000.6329    804.04086    14703.277   -19513.699    304.19498    860.50953   0.98894151        0.012     -0.23136      0.05928     -0.00144 
 1977000   -3415.9422    641.61569   -4057.5579    745.87443    14708.085   -19514.485    295.67139   -493.96616    1.0009242       0.0115     -0.23172      0.05931     -0.00138 
 1978000   -3384.7971    642.45721   -4027.2544    791.74999    14689.168   -19514.153    296.05918    648.26298    1.0171043        0.011     -0.23208      0.05934     -0.00132 
 1979000   -3383.9484    668.78414   -4052.7326    729.00482    14729.453   -19515.042    308.19124   -872.86526    1.0090904       0.0105     -0.23244      0.05937     -0.00126 
 1980000   -3423.0478    638.96765   -4062.0154    734.97726    14708.815    -19511.87     294.4511   -833.46967   0.98601625         0.01      -0.2328       0.0594      -0.0012 
 1981000   -3432.9124    627.74413   -4060.6565    725.05056    14722.438   -19513.286    289.27905   -1072.7844    1.0063827       0.0095     -0.23316      0.05943     -0.00114 
 1982000   -3333.5074    650.32736   -3983.8347    715.25286    14806.545   -19511.736    299.68592   -768.30199   0.99640626        0.009     -0.23352      0.05946     -0.00108 
 1983000   -3318.9243    663.30397   -3982.2283    766.27795    14759.714   -19512.359    305.66585    400.93265    1.0143838       0.0085     -0.23388      0.05949     -0.00102 
 1984000   -3327.8544    638.49178   -3966.3462    706.84427    14834.328   -19512.777    294.23182   -563.35201    1.0021225        0.008     -0.23424      0.05952     -0.00096 
 1985000   -3316.3082     667.1638    -3983.472    781.57141    14741.439   -19511.257    307.44454    1108.4228    1.0147735       0.0075      -0.2346      0.05955      -0.0009 
 1986000    -3359.799     654.0139   -4013.8129    755.46507    14740.399   -19514.718    301.38476   -767.47996   0.97481387        0.007     -0.23496      0.05958     -0.00084 
 1987000   -3338.3465    640.61379   -3978.9603     740.9514    14786.268   -19511.954    295.20968    63.240693    1.0014847       0.0065     -0.23532      0.05961     -0.00078 
 1988000   -3386.0627    670.81503   -4056.8778    785.38211     14668.07   -19513.994    309.12712    438.14504    1.0175472        0.006     -0.23568      0.05964     -0.00072 
 1989000   -3393.7389    660.55498   -4054.2939    812.94272    14639.956   -19512.764    304.39905    757.18301    1.0199076       0.0055     -0.23604      0.05967     -0.00066 
 1990000    -3381.604    633.57831   -4015.1823    710.12738    14785.109   -19514.744    291.96757   -1180.5073   0.99682796        0.005      -0.2364       0.0597      -0.0006 
 1991000   -3320.8565    666.95176   -3987.8083    716.52836    14801.887   -19512.748    307.34683    -731.1691    1.0104041       0.0045     -0.23676      0.05973     -0.00054 
 1992000   -3390.8049     647.8865   -4038.6914    769.43725    14700.547   -19512.945    298.56112    462.08567    1.0378717        0.004     -0.23712      0.05976     -0.00048 
 1993000   -3380.8313      648.182   -4029.0133    813.98714    14663.027   -19512.562    298.69729    1003.0657    1.0185095       0.0035     -0.23748      0.05979     -0.00042 
 1994000   -3334.6508    639.76272   -3974.4135    705.87716    14827.452   -19514.786    294.81749    -574.4086    1.0139231        0.003     -0.23784      0.05982     -0.00036 
 1995000   -3369.2521    659.95155   -4029.2037    765.16172     14713.58   -19516.554    304.12098    584.96703    1.0279924       0.0025      -0.2382      0.05985      -0.0003 
 1996000   -3366.8372     653.9485   -4020.7857    686.42484    14798.949   -19512.114    301.35463   -1590.9845   0.99476263        0.002     -0.23856      0.05988     -0.00024 
 1997000   -3361.5882    645.94288   -4007.5311    775.07709    14726.214   -19514.024    297.66545    403.49137    1.0105895       0.0015     -0.23892      0.05991     -0.00018 
 1998000   -3409.9572    657.56765   -4067.5248    804.88678    14634.477   -19512.308    303.02242    480.88575    1.0044005        0.001     -0.23928      0.05994     -0.00012 
 1999000   -3401.9817    633.53895   -4035.5207    829.13487    14641.945   -19511.251    291.94943     1642.859    1.0234578       0.0005     -0.23964      0.05997       -6e-05 
 2000000   -3374.8975    656.57425   -4031.4718     764.1913    14714.782   -19517.051    302.56464   -75.447363    1.0058628            0        -0.24         0.06           -0 
Loop time of 5880.22 on 12 procs for 2000000 steps with 1089 atoms

Performance: 29.387 ns/day, 0.817 hours/ns, 340.124 timesteps/s
93.1% CPU use with 12 MPI tasks x 1 OpenMP threads

MPI task timing breakdown:
Section |  min time  |  avg time  |  max time  |%varavg| %total
---------------------------------------------------------------
Pair    | 2854.2     | 2993.6     | 3158.6     | 171.6 | 50.91
Bond    | 2.3145     | 3.1203     | 4.6014     |  45.1 |  0.05
Kspace  | 1269.4     | 1438.6     | 1580.2     | 250.2 | 24.46
Neigh   | 213.44     | 213.81     | 214.14     |   1.7 |  3.64
Comm    | 549.05     | 554.8      | 559.96     |  14.0 |  9.44
Output  | 0.23146    | 0.23606    | 0.27525    |   2.4 |  0.00
Modify  | 544.13     | 558.19     | 564.47     |  20.9 |  9.49
Other   |            | 118        |            |       |  2.01

Nlocal:        90.7500 ave         101 max          83 min
Histogram: 1 2 2 1 1 0 3 1 0 1
Nghost:        3768.25 ave        3793 max        3737 min
Histogram: 1 0 1 3 1 0 2 0 1 3
Neighs:        32469.1 ave       35436 max       29500 min
Histogram: 1 0 1 4 1 1 0 2 1 1

Total # of neighbors = 389629
Ave neighs/atom = 357.78604
Ave special neighs/atom = 2.0495868
Neighbor list builds = 84201
Dangerous builds = 0

# write_restart restart.*.lmp
write_data data.*.lmp
System init for write_data ...
PPPM initialization ...
  using 12-bit tables for long-range coulomb (src/lammps/src/kspace.cpp:339)
  G vector (1/distance) = 0.26778419
  grid = 12 12 12
  stencil order = 5
  estimated absolute RMS force accuracy = 0.025784596
  estimated relative force accuracy = 7.7649546e-05
  using double precision FFTW3
  3d grid and FFT values/proc = 1859 144
Neighbor list info ...
  update every 1 steps, delay 10 steps, check yes
  max neighbors/atom: 2000, page size: 100000
  master list distance cutoff = 12
  ghost atom cutoff = 12
  binsize = 6, bins = 4 4 4
  3 neighbor lists, perpetual/occasional/extra = 3 0 0
  (1) pair lj/cut/coul/long, perpetual, skip from (3)
      attributes: half, newton on
      pair build: skip
      stencil: none
      bin: none
  (2) pair lj/cut/coul/long/soft, perpetual, skip from (3)
      attributes: half, newton on
      pair build: skip
      stencil: none
      bin: none
  (3) neighbor class addition, perpetual
      attributes: half, newton on
      pair build: half/bin/newton
      stencil: half/bin/3d/newton
      bin: standard
Total wall time: 1:47:53
