LAMMPS (29 Oct 2020)
OMP_NUM_THREADS environment is not set. Defaulting to 1 thread. (src/lammps/src/comm.cpp:94)
  using 1 OpenMP thread(s) per MPI task
# created by fftool

units real
boundary p p p

atom_style full
bond_style harmonic
angle_style harmonic
special_bonds lj/coul 0.0 0.0 0.5

read_data data.0.lmp
Reading data file ...
  orthogonal box = (-13.443762 -13.443762 -13.443762) to (13.443762 13.443762 13.443762)
  2 by 2 by 3 MPI processor grid
  reading atoms ...
  1089 atoms
  scanning bonds ...
  1 = max bonds/atom
  scanning angles ...
  28 = max angles/atom
  reading bonds ...
  728 bonds
  reading angles ...
  388 angles
Finding 1-2 1-3 1-4 neighbors ...
  special bond factors lj:    0        0        0.5     
  special bond factors coul:  0        0        0.5     
     8 = max # of 1-2 neighbors
     7 = max # of 1-3 neighbors
     7 = max # of 1-4 neighbors
     8 = max # of special neighbors
  special bonds CPU = 0.001 seconds
  read_data CPU = 0.014 seconds
# read_restart restart.*.lmp
# reset_timestep 0

pair_style hybrid lj/cut/coul/long 10.0 10.0 lj/cut/coul/long/soft 1 0.5 10.0 10.0 10.0
pair_modify tail yes
kspace_style pppm 1.0e-4

pair_coeff    1    1  lj/cut/coul/long    0.0660   3.5000  # C-CF C-CF
pair_coeff    1    2  lj/cut/coul/long    0.0445   2.9580  # C-CF H-D
pair_coeff    1    3  lj/cut/coul/long    0.0591   3.2133  # C-CF FD-
pair_coeff    1    4  lj/cut/coul/long    0.0000   1.8708  # C-CF Hw
pair_coeff    1    5  lj/cut/coul/long    0.1013   3.3286  # C-CF Ow
pair_coeff    2    2  lj/cut/coul/long    0.0300   2.5000  # H-D H-D
pair_coeff    2    3  lj/cut/coul/long    0.0399   2.7157  # H-D FD-
pair_coeff    2    4  lj/cut/coul/long/soft    0.0000   1.5811  1.0  # H-D Hw
pair_coeff    2    5  lj/cut/coul/long/soft    0.0683   2.8131  1.0  # H-D Ow
pair_coeff    3    3  lj/cut/coul/long    0.0530   2.9500  # FD- FD-
pair_coeff    3    4  lj/cut/coul/long/soft    0.0000   1.7176  0.0  # FD- Hw
pair_coeff    3    5  lj/cut/coul/long/soft    0.0908   3.0559  0.0  # FD- Ow
pair_coeff    4    4  lj/cut/coul/long    0.0000   1.0000  # Hw Hw
pair_coeff    4    5  lj/cut/coul/long    0.0000   1.7792  # Hw Ow
pair_coeff    5    5  lj/cut/coul/long    0.1554   3.1655  # Ow Ow

variable TK equal 300.0
variable PBAR equal 1.0

neighbor 2.0 bin

timestep 1.0

velocity all create ${TK} 12345
velocity all create 300 12345

fix SHAKE all shake 0.0001 20 0 b 3 a 4
       0 = # of size 2 clusters
       0 = # of size 3 clusters
       0 = # of size 4 clusters
     360 = # of frozen angles
  find clusters CPU = 0.001 seconds

fix NPT all npt temp ${TK} ${TK} 100 iso ${PBAR} ${PBAR} 500
fix NPT all npt temp 300 ${TK} 100 iso ${PBAR} ${PBAR} 500
fix NPT all npt temp 300 300 100 iso ${PBAR} ${PBAR} 500
fix NPT all npt temp 300 300 100 iso 1 ${PBAR} 500
fix NPT all npt temp 300 300 100 iso 1 1 500

thermo_style custom step cpu etotal ke pe evdwl ecoul elong temp press vol density
thermo 1000

run 200000
PPPM initialization ...
  using 12-bit tables for long-range coulomb (src/lammps/src/kspace.cpp:339)
  G vector (1/distance) = 0.27021276
  grid = 15 15 15
  stencil order = 5
  estimated absolute RMS force accuracy = 0.016910392
  estimated relative force accuracy = 5.0925143e-05
  using double precision FFTW3
  3d grid and FFT values/proc = 2352 450
Neighbor list info ...
  update every 1 steps, delay 10 steps, check yes
  max neighbors/atom: 2000, page size: 100000
  master list distance cutoff = 12
  ghost atom cutoff = 12
  binsize = 6, bins = 5 5 5
  3 neighbor lists, perpetual/occasional/extra = 3 0 0
  (1) pair lj/cut/coul/long, perpetual, skip from (3)
      attributes: half, newton on
      pair build: skip
      stencil: none
      bin: none
  (2) pair lj/cut/coul/long/soft, perpetual, skip from (3)
      attributes: half, newton on
      pair build: skip
      stencil: none
      bin: none
  (3) neighbor class addition, perpetual
      attributes: half, newton on
      pair build: half/bin/newton
      stencil: half/bin/3d/newton
      bin: standard
Per MPI rank memory allocation (min/avg/max) = 16.37 | 16.38 | 16.39 Mbytes
Step CPU TotEng KinEng PotEng E_vdwl E_coul E_long Temp Press Volume Density 
       0            0    798.08888     972.9364   -174.84752    -201.6326    19449.757    -19423.16    448.35165    1094.5342    19438.038   0.56189244 
    1000    1.6227639   -3135.9243    629.54322   -3765.4676    732.54113     15141.62   -19640.497    290.10811   -234.59752    13323.595   0.81975524 
    2000    4.3550149   -3333.4048    628.81546   -3962.2203    771.57676    14914.189   -19648.873    289.77274   -306.28703    11774.436   0.92761017 
    3000    7.2743737   -3309.7195    677.89703   -3987.6166    757.99659    14902.361   -19649.323    312.39067     383.0691    10832.367    1.0082825 
    4000    10.112018   -3314.5067    641.13741   -3955.6441    769.70713    14921.613   -19647.838    295.45098    510.27803    10888.206    1.0031117 
    5000    12.706124   -3371.0779    621.77548   -3992.8534    790.65314    14864.613   -19649.217    286.52855    954.94335    10827.277    1.0087566 
    6000    15.489237   -3353.7143    662.53154   -4016.2459    744.67602    14889.993     -19652.3    305.30989   -422.11945    10980.311   0.99469738 
    7000    18.236457   -3360.1226    638.50387   -3998.6265    739.96323     14908.61   -19648.408    294.23739   -397.77334     10917.97    1.0003771 
    8000    21.113473   -3350.5189    659.78194   -4010.3009    763.57322    14874.976   -19650.722    304.04281    58.154192    10905.304    1.0015389 
    9000    23.987032    -3396.809    626.60232   -4023.4113    776.04899    14849.476    -19650.05    288.75287    263.83864    10861.498    1.0055783 
   10000    27.076899   -3394.4848    642.63639   -4037.1212     711.4545    14901.365   -19651.143    296.14175    -1267.145    10904.447    1.0016176 
   11000    30.184956   -3297.1389    686.72595   -3983.8649    753.45058     14907.57   -19646.446    316.45924    441.31675    10709.186    1.0198802 
   12000    32.719707   -3411.7157    634.98327    -4046.699    757.47342    14841.968   -19647.665    292.61501   -70.867985    10726.666    1.0182182 
   13000    35.727222   -3374.9645    634.51906   -4009.4836    715.92455    14921.027   -19648.011    292.40109   -665.68165    10807.776    1.0105767 
   14000    38.770042   -3438.3513    638.93389   -4077.2852    724.17831    14845.131   -19648.377    294.43555   -1171.5416    10807.455    1.0106067 
   15000     41.35641   -3365.0228    644.87938   -4009.9021    827.30298    14811.105   -19649.786    297.17537     1095.495    10900.078    1.0020191 
   16000    44.198681   -3365.6605    640.00578   -4005.6663    733.30864    14911.539   -19651.433     294.9295   -893.58882    11099.467   0.98401905 
   17000    47.004999   -3412.1185     652.8766   -4064.9951    808.29086    14774.583   -19649.833    300.86067    775.16386    10832.393    1.0082802 
   18000    49.307934   -3413.1241    642.52146   -4055.6455    779.41048    14813.756   -19650.103    296.08878    239.37739    10770.676    1.0140577 
   19000    52.516104   -3392.8412    652.52618   -4045.3674    780.92671    14821.147   -19649.131    300.69919   -21.897655    10966.136   0.99598314 
   20000    55.649319   -3330.7426    663.82659   -3994.5692    737.44583    14915.667   -19651.054    305.90668   -465.12194    10903.468    1.0017076 
   21000    58.277268   -3329.3496    676.78976   -4006.1393    709.91532    14929.303   -19647.492    311.88041   -877.40985     10982.77   0.99447473 
   22000    60.472235   -3370.5698    636.53863   -4007.1085    773.13288    14865.407    -19649.07    293.33176    563.27108    10931.735   0.99911745 
   23000    62.767962   -3349.9273    656.01208   -4005.9394    756.49013    14886.996   -19651.417    302.30557    34.763751    10860.428    1.0056774 
   24000    65.937963   -3325.3063    672.60215   -3997.9084    760.64327    14886.531   -19647.632    309.95067   -164.43976    10936.076   0.99872082 
   25000    69.103421    -3358.178    677.71691   -4035.8949    755.15482    14857.343   -19650.872    312.30766    -84.92193    10843.837    1.0072161 
   26000    71.851329    -3347.382     672.1553   -4019.5373    750.87566    14875.682   -19648.128    309.74474   -450.18098    11156.794   0.97896283 
   27000    74.118636   -3373.0732    664.42954   -4037.5027    805.42361    14801.784   -19647.775    306.18454    615.21813    11013.134   0.99173282 
   28000     76.02629   -3405.9581    640.38635   -4046.3444    755.70742     14842.59   -19647.534    295.10488   -682.91397    10977.214   0.99497801 
   29000     77.94268   -3391.7825    660.70223   -4052.4848    741.10988    14850.358   -19646.019     304.4669   -335.54942    10759.014    1.0151568 
   30000    79.874011   -3420.3523    619.13732   -4039.4897    748.84158    14856.835   -19647.895    285.31283   -555.95656    10817.844    1.0096362 
   31000    82.529485   -3418.7423    636.16294   -4054.9052    743.02294    14850.469   -19651.029    293.15863   -960.36278    11038.486   0.98945511 
   32000    85.405709   -3298.6451    710.74972   -4009.3948    713.81064    14923.742   -19648.983    327.52995   -906.58524    10949.584   0.99748877 
   33000     88.43898   -3345.6779    666.60707    -4012.285    733.59753      14901.4   -19650.877    307.18799   -612.23666    10913.444     1.000792 
   34000     91.49661   -3398.4259    651.70407     -4050.13    728.38362    14868.157   -19648.637    300.32034   -949.57274    10826.612    1.0088185 
   35000    94.396664   -3335.5822    679.38748   -4014.9697    748.94256    14883.767   -19650.181     313.0775   -113.94404    10846.052    1.0070104 
   36000    96.385906    -3444.994    658.12175   -4103.1157    774.99324    14770.478   -19651.116    303.27776    -101.7667    10635.157    1.0269793 
   37000    98.378928   -3404.8312    649.64154   -4054.4727    876.87186    14716.949   -19649.753    299.36988    2649.1268    10507.427    1.0394635 
   38000     101.3117   -3344.8928    655.38456   -4000.2773    719.20801    14926.744   -19649.132     302.0164   -504.44754    10717.894    1.0190516 
   39000    104.48293   -3352.8954    643.29653   -3996.1919    725.72981    14923.677   -19647.526    296.44595   -585.78876    10905.137    1.0015543 
   40000    107.62957   -3369.9101    637.39998     -4007.31    746.91058    14895.384   -19651.745    293.72869    26.094236    10776.242    1.0135339 
   41000    110.73764   -3281.4951    648.37198    -3929.867    726.88832     14990.21   -19649.256    298.78484    122.07948    10811.983    1.0101835 
   42000    113.89317   -3352.4718      637.776   -3990.2478     698.8244    14953.386   -19645.083    293.90197   -323.99367    10553.334    1.0349419 
   43000    116.98708   -3417.1937    648.96364   -4066.1573    810.87183    14771.133   -19649.478    299.05749    954.79757    10653.129    1.0252468 
   44000    120.11947    -3399.018    651.38047   -4050.3985    748.86042    14846.364   -19648.669    300.17122    -128.0086    10720.429    1.0188106 
   45000    123.18405   -3316.4994    663.83111   -3980.3305    730.84729    14933.283   -19646.334    305.90877   -471.03351    10999.966   0.99292005 
   46000    126.34266   -3379.5773    634.41148   -4013.9888    726.68572    14907.788   -19650.575    292.35152   -362.34441    10704.492    1.0203274 
   47000    129.39545   -3299.3383    678.74581   -3978.0841    808.75365    14860.115   -19650.314     312.7818    1105.5628    11016.741   0.99140817 
   48000    132.36242   -3328.0267    663.94989   -3991.9766       738.84    14918.287   -19651.128     305.9635   -149.85725    10954.863   0.99700805 
   49000     135.4771   -3393.8602    664.10659   -4057.9668      778.728    14808.309   -19648.368    306.03571    367.98933    10714.776    1.0193482 
   50000    138.67527   -3327.2702    665.60161   -3992.8718    730.52205    14921.662   -19649.656    306.72465   -507.98309    10972.496   0.99540583 
   51000    141.78402   -3408.9553    647.78836   -4056.7436    800.11595    14792.953   -19651.622     298.5159    733.58442    10770.401    1.0140836 
   52000    144.97759   -3346.0292    674.59159   -4020.6208     741.7902    14885.791     -19651.2    310.86744   -253.31211    10771.224    1.0140061 
   53000    148.10596   -3403.6702    647.30126   -4050.9714    702.44537    14892.703   -19650.153    298.29142   -1455.3963    10887.242    1.0032006 
   54000    151.27561   -3402.2708    635.30832   -4037.5791    784.06045      14824.2   -19649.122     292.7648    456.18379    10895.154     1.002472 
   55000    154.31059   -3356.8544    658.92367   -4015.7781     763.9178    14867.309   -19649.791     303.6473    383.12741    10764.652    1.0146252 
   56000    157.35988   -3367.0719    647.68934   -4014.7613    795.24439    14836.387   -19650.473    298.47026    629.99251    10898.792    1.0021374 
   57000    160.41422    -3331.368     668.9516   -4000.3196    755.42796    14890.939   -19649.119     308.2684    197.64025    10828.027    1.0086867 
   58000    163.43492   -3419.3941    603.03817   -4022.4323    770.31208    14856.552   -19652.191    277.89397    193.13804    10905.861    1.0014878 
   59000    166.48169    -3443.906    615.62832   -4059.5343    830.66206    14753.628   -19646.219     283.6958    746.99913    10943.948    0.9980024 
   60000    169.36167   -3352.4508    639.91257   -3992.3633    756.76722    14897.558   -19648.528    294.88655   -351.80447     11091.83   0.98469655 
   61000    172.15329   -3332.3304    654.29338   -3986.6238    738.23788    14921.388   -19648.685    301.51356   -412.09881    11155.118   0.97910992 
   62000    175.18581   -3318.3617    659.16412   -3977.5258    743.21533    14926.246   -19649.542    303.75811   -249.54472    10898.661    1.0021494 
   63000    178.33253   -3311.1132    642.26966   -3953.3829    723.58338    14967.469   -19647.287    295.97275   -385.33656    10884.406    1.0034619 
   64000    181.60183   -3383.0314    629.93214   -4012.9636    730.04342    14904.941   -19649.613    290.28733   -969.93156    11056.015    0.9878864 
   65000    184.69713   -3308.2098    674.52711    -3982.737    747.85911    14913.345   -19646.694    310.83773   -165.84809      11111.7   0.98293571 
   66000    187.65407   -3364.2868     652.0621   -4016.3489    799.42941    14832.934    -19650.75    300.48533    917.61356    10805.021    1.0108344 
   67000    190.77911   -3363.9885    638.70705   -4002.6955    761.21697    14884.338   -19650.305    294.33102    635.45937    10546.969    1.0355664 
   68000    193.86146   -3334.0791    636.44049   -3970.5196    739.73877    14937.166   -19649.614    293.28653    68.912387    10726.537    1.0182304 
   69000    196.94314   -3418.4919    634.00423   -4052.4961    820.51179    14773.769    -19648.83    292.16385    747.20053    10922.388   0.99997246 
   70000    199.80403    -3373.947    631.42486   -4005.3719    711.02529    14931.736   -19650.858    290.97521   -1000.4585    11049.818   0.98844045 
   71000    202.92351   -3343.3809    681.76184   -4025.1427    710.22237    14909.644    -19648.07    314.17166   -1169.1237    10925.148   0.99971979 
   72000    206.16718   -3370.6387     671.8063    -4042.445    809.06517    14794.279   -19647.383    309.58392    1029.3304    10718.336    1.0190096 
   73000    209.25575   -3363.0344    648.99348   -4012.0279    752.87791    14883.425   -19650.369    299.07124   -86.557401    10803.898    1.0109394 
   74000    212.34845   -3344.0362    656.35024   -4000.3864    765.46402    14883.809   -19650.893    302.46141    811.73493    10654.411    1.0251235 
   75000    215.42493   -3441.0221    643.37193    -4084.394    747.00535    14815.788   -19648.971     296.4807   -687.99101    10758.163    1.0152371 
   76000    218.18937   -3368.2667    659.91054   -4028.1772    714.27352    14902.671   -19647.297    304.10208   -1093.9805    10977.453   0.99495638 
   77000    220.42222   -3358.7851    646.86982   -4005.6549    760.48103    14880.703   -19648.521    298.09261   -42.803257    11010.743   0.99194822 
   78000    222.87324   -3405.3542    646.26899   -4051.6232    751.04556    14847.343   -19651.631    297.81573     -366.845    10836.053    1.0079396 
   79000    225.85253    -3334.737    652.95347   -3987.6905    773.64001    14886.896    -19649.86     300.8961    739.14565    10643.412    1.0261828 
   80000    228.94092   -3364.4996    635.46853   -3999.9681    746.74747    14902.651   -19651.381    292.83863     27.34912    10632.941    1.0271934 
   81000    232.12064   -3336.9105    626.37349    -3963.284    718.41756    14965.831   -19649.999    288.64743   -482.82365    10903.607    1.0016949 
   82000    235.20638   -3294.8229    639.79024   -3934.6131    765.39251    14946.022   -19647.838    294.83018    937.00266    10804.659    1.0108683 
   83000    238.13385   -3353.1695    650.04806   -4003.2176    770.82681    14873.109   -19648.497    299.55722    723.14608    10699.458    1.0208075 
   84000    241.13583   -3401.9404    636.42544   -4038.3659     756.6727    14852.968   -19650.268     293.2796    42.460588     10803.51    1.0109758 
   85000    243.33306    -3367.905     640.1287   -4008.0337    734.92136    14906.233   -19651.455    294.98614     83.80666    10584.659    1.0318789 
   86000    245.97371   -3392.4387     646.2809   -4038.7196     806.8106     14801.83   -19649.186    297.82122    438.85782    11015.687   0.99150301 
   87000    248.12829   -3384.7716    651.77287   -4036.5445    813.19595    14799.513    -19650.99    300.35205    798.80286    10880.565    1.0038162 
   88000     250.0307   -3377.3051    657.90541   -4035.2105    821.94479    14791.328   -19650.478    303.17806    901.78308    10815.707    1.0098357 
   89000    251.99639   -3342.4027    670.73846   -4013.1412    804.18895    14822.309   -19644.383    309.09183    1284.3841     10671.02    1.0235279 
   90000    254.19997   -3420.2163    615.64957   -4035.8659    754.92363    14856.769   -19652.088    283.70559   -269.37533    10945.889   0.99782546 
   91000    256.93525   -3328.1675    659.51188   -3987.6793    795.80348    14860.244   -19647.865    303.91836    215.60569     11260.45   0.96995114 
   92000    259.66669   -3358.2213    656.90946   -4015.1307    801.52461    14825.995   -19648.965    302.71911    793.31406    10837.102    1.0078421 
   93000    262.49811   -3373.1305    631.19068   -4004.3212    743.90076    14898.618   -19650.669     290.8673   -244.18726    10934.883   0.99882981 
   94000    265.27422   -3417.4348    620.68383   -4038.1186    729.51892    14876.758   -19648.529     286.0255    -988.8428    10948.711   0.99756826 
   95000    268.02755   -3360.5218    637.85203   -3998.3738    720.68596    14925.393   -19650.463      293.937     14.71448    10617.634    1.0286742 
   96000    271.08994   -3314.0216    657.16917   -3971.1908    736.14127    14936.736   -19647.832    302.83879    254.74282    10664.142    1.0241881 
   97000    274.29641   -3347.2386    654.74153   -4001.9801    737.48065    14906.209   -19650.784    301.72007   -392.11361    10859.047    1.0058053 
   98000     277.5295   -3399.6443    645.62027   -4045.2646    805.86756    14795.989   -19650.991    297.51679    622.88014    10815.931    1.0098148 
   99000    280.69542   -3409.0821    632.97743   -4042.0595    764.60187    14841.751   -19652.313    291.69067   -26.842273    10728.354     1.018058 
  100000     283.8378   -3339.8374    658.30631   -3998.1437    761.06109    14888.636   -19652.093    303.36281   -6.0703178    11090.189   0.98484226 
  101000    286.87721   -3362.1186    661.94979   -4024.0684    742.99972     14878.86   -19649.336    305.04181   -563.29767    11014.995   0.99156528 
  102000    290.07789   -3386.5733    606.90665     -3993.48    772.90614     14877.66   -19648.487    279.67666    364.80743    10858.193    1.0058843 
  103000    293.29033   -3324.9554    659.76653   -3984.7219    769.15339    14889.287   -19646.675    304.03571    513.48317     10953.61   0.99712208 
  104000     296.5465   -3397.1866    620.62139    -4017.808     795.9375    14828.662   -19647.968    285.99672     907.0442    10837.588    1.0077968 
  105000     299.6883   -3382.4995    648.25877   -4030.7583    797.25655    14816.713   -19649.467    298.73267    412.87326    10959.672   0.99657057 
  106000     302.8692   -3333.7645    678.18678   -4011.9513    751.75647    14880.712   -19650.503    312.52419   -346.13564    11128.759   0.98142904 
  107000     305.9912   -3354.9009    648.70234   -4003.6033    814.22481    14828.018   -19651.832    298.93708    1326.7249    10804.094    1.0109212 
  108000     309.1072   -3323.7826    676.27053   -4000.0531    757.66342    14883.633    -19647.48    311.64114   -14.394857    10890.887    1.0028648 
  109000    312.30662   -3355.5416    654.20276   -4009.7444    784.10263     14849.23   -19649.707     301.4718    1187.0686    10639.679    1.0265429 
  110000    315.47373   -3380.3752    631.31939   -4011.6946    745.60134    14883.493   -19646.482    290.92661   -48.374809    10795.436    1.0117319 
  111000    318.59032   -3401.8334    638.94498   -4040.7784    766.96923    14836.431   -19649.555    294.44066   -354.50407    11003.022   0.99264426 
  112000    321.59996   -3413.5057    662.60937   -4076.1151    819.41803    14749.595   -19649.635    305.34576    659.18933    10854.637    1.0062139 
  113000    324.67915   -3370.1107    632.33094   -4002.4416    772.99396    14868.719   -19650.231    291.39276    515.02396    10717.486    1.0190904 
  114000    327.87951   -3354.0328    673.83429   -4027.8671    812.63712    14801.595   -19648.243    310.51846    985.88879    10790.828     1.012164 
  115000    331.09494   -3270.8582    652.33372    -3923.192    709.91663    15011.308    -19648.42     300.6105   -514.77178     11022.22   0.99091535 
  116000    334.36494   -3326.0255    649.26272   -3975.2882    765.32922    14904.188   -19650.521    299.19531    89.704998    11030.013   0.99021519 
  117000    337.60043   -3314.6976    690.48407   -4005.1817    739.31178    14898.625   -19648.293    318.19107   -706.01302    11136.645   0.98073407 
  118000    340.73023   -3395.3039    646.25987   -4041.5638    782.89725    14821.981   -19650.706    297.81153    469.89183    10725.427    1.0183358 
  119000    343.85716   -3352.8785     648.9704   -4001.8489    743.77601    14896.931   -19649.255    299.06061   -72.754473    10827.626    1.0087241 
  120000    347.02799    -3376.287    646.47293   -4022.7599    780.16074     14841.24   -19649.425    297.90972    677.92401    10559.084    1.0343783 
  121000    350.14087   -3334.2648    653.54886   -3987.8137    807.03694    14847.086   -19647.143    301.17047    1231.7405    10834.347    1.0080983 
  122000     353.2703   -3392.1736    659.25807   -4051.4317    790.08415    14802.976   -19648.342     303.8014    608.48434    10755.876     1.015453 
  123000    356.50134   -3351.3844    661.13084   -4012.5152    765.68373     14865.89   -19647.859    304.66442    455.96449    10769.393    1.0141785 
  124000    359.75143   -3399.7389    645.59268   -4045.3316    838.17932    14758.228   -19646.284    297.50407    1366.4127    10766.994    1.0144045 
  125000    362.99561   -3377.9557    642.40716   -4020.3629    764.85444     14856.98   -19648.707    296.03611    50.832713    10833.286     1.008197 
  126000    366.34009   -3430.9334    620.76964    -4051.703    819.17048    14776.823    -19651.21    286.06504    786.80724    10959.845   0.99655482 
  127000    369.65576   -3304.0337    657.36979   -3961.4035    722.09865    14961.098   -19650.383    302.93124   -617.63058    11002.927   0.99265288 
  128000    372.89106   -3350.4912    650.11432   -4000.6055    730.81891    14911.363   -19647.549    299.58775   -345.07238    10848.892    1.0067467 
  129000     375.9395   -3352.3377    659.05496   -4011.3927     801.5679    14827.902   -19648.553     303.7078    1024.8803    10761.064    1.0149634 
  130000    379.05924   -3331.3316    646.16758   -3977.4992    702.45572    14961.396   -19648.868      297.769   -813.36433    10734.344    1.0174899 
  131000    382.24409   -3378.3014    654.56592   -4032.8673    783.17916    14827.183   -19646.825    301.63915    314.88338    10797.279    1.0115592 
  132000    385.44093   -3294.3184    685.17163   -3979.4901    648.96238    15017.565   -19650.224    315.74297   -2184.2676    11184.021   0.97657963 
  133000    388.68642   -3343.5645    683.09706   -4026.6615     735.6572    14883.576     -19651.4    314.78696   -1185.4466    10996.315   0.99324975 
  134000    391.61811   -3362.5165    663.41639   -4025.9329    723.85251    14894.769   -19650.647    305.71765   -1275.2595     11191.14   0.97595841 
  135000    394.67542   -3415.5801    631.64607   -4047.2262     737.9634    14860.936   -19650.533    291.07715   -1173.4651    10946.547   0.99776548 
  136000    397.86076   -3387.9696    642.28653   -4030.2562    803.92941    14810.291   -19649.027    295.98052     558.5236    10880.977    1.0037781 
  137000    400.95476   -3306.5591    669.23431   -3975.7934    765.46865    14899.052   -19648.694    308.39869   -144.69146    11093.497   0.98454859 
  138000     404.0148   -3436.8724    604.66442   -4041.5368     827.0866    14774.497   -19649.223    278.64338    1039.4942    10877.528    1.0040964 
  139000    406.90658   -3316.7286    642.07761   -3958.8062    770.14988    14910.151   -19647.123    295.88425    586.61636    10830.229    1.0084817 
  140000      410.139   -3435.4909    646.60473   -4082.0956    742.88993    14819.762   -19649.242    297.97045    -924.6196    10763.567    1.0147274 
  141000    412.97397   -3349.8621    665.88867   -4015.7508     824.0151    14802.572    -19649.88    306.85693    1437.0343    10815.766    1.0098301 
  142000    415.69334   -3389.4803    656.80813   -4046.2884     815.9995    14783.418   -19649.538    302.67241    618.52893    10888.803    1.0030567 
  143000    418.35581   -3353.9126    657.39556   -4011.3081    754.07514    14876.046   -19648.455    302.94312   -761.67008    11210.215   0.97429771 
  144000    421.09581   -3399.1395    648.34596   -4047.4854     757.3745     14842.47   -19650.302    298.77285   -290.76144    10918.994    1.0002832 
  145000    423.89736   -3321.4046    672.82697   -3994.2315    727.01005    14923.103   -19648.023    310.05426   -94.548607    10776.144    1.0135431 
  146000    426.88246   -3334.4314    646.05182   -3980.4832    718.68787    14945.962   -19650.513    297.71566   -765.92932    10954.651   0.99702734 
  147000    429.03205   -3354.2563    655.47531   -4009.7316    732.63749    14902.593   -19649.108    302.05822    -430.8045    10725.851    1.0182956 
  148000    431.18588   -3337.8871    654.61295      -3992.5    769.42856    14880.899   -19650.086    301.66082     755.7811    10683.384    1.0223434 
  149000    434.07276    -3376.242    641.83503   -4018.0771    774.77423    14853.885   -19649.601    295.77246    361.77483    10814.831    1.0099174 
  150000    437.03956   -3361.8006    636.53661   -3998.3372    794.62666    14850.839   -19648.304    293.33083    621.45504    10840.943    1.0074849 
  151000    439.38767   -3385.8031     660.1222   -4045.9253    787.26849    14814.229   -19650.391    304.19961    540.19133    10758.994    1.0151587 
  152000    442.26277   -3343.2856     669.2682   -4012.5538    753.90842    14877.678   -19648.544     308.4143   -75.500409     10842.74     1.007318 
  153000    445.11162   -3302.9056     655.9137   -3958.8193    727.60445    14959.349   -19649.544    302.26024   -542.06617    11257.085   0.97024109 
  154000    447.79634   -3364.4801    640.01767   -4004.4977    786.40365    14853.443   -19648.083    294.93498    167.89008    11070.961   0.98655272 
  155000    450.80494   -3381.1697    648.14661   -4029.3163    745.34994    14870.872   -19649.681    298.68099   -484.22067    10953.454   0.99713629 
  156000    453.78255   -3355.8323    690.06687   -4045.8991    801.03438    14796.077   -19647.031    317.99881    646.55058    10808.799     1.010481 
  157000    456.74023   -3358.0471    624.66039   -3982.7075    751.73555    14908.971   -19646.858    287.85799    -171.8557    10800.265    1.0112796 
  158000    459.95793   -3361.8345    615.05113   -3976.8857    756.69986    14910.547   -19648.063    283.42982    565.78305    10581.632    1.0321741 
  159000    463.07595   -3354.6895    650.23744   -4004.9269    814.77489    14825.419   -19649.058    299.64448    1870.0288    10539.543    1.0362961 
  160000    465.61057   -3387.3316    642.27094   -4029.6026    756.42682    14859.059    -19648.66    295.97334   -306.78395    10898.921    1.0021255 
  161000    468.44261   -3343.0814    653.61712   -3996.6986    800.28065    14847.812   -19647.964    301.20192    595.15208    11010.736   0.99194886 
  162000     470.7058   -3324.2673    657.09555   -3981.3628    792.19065    14870.232    -19648.33    302.80486    1199.9282    10744.365     1.016541 
  163000    473.09732   -3342.7775    679.83215   -4022.6096    727.18841    14897.208   -19650.549    313.28241   -997.06935    11210.914   0.97423699 
  164000    475.81005   -3379.4848    625.20354   -4004.6883    757.14884    14881.551   -19648.134    288.10828   -76.040761    11090.621    0.9848039 
  165000    478.15052   -3386.1281    628.34429   -4014.4724    734.93844    14895.393   -19648.215    289.55562   -464.67688     11010.29   0.99198902 
  166000     480.8469   -3424.9866    658.25206   -4083.2387    818.88571    14746.189   -19651.579    303.33781    614.68026    10849.995    1.0066444 
  167000    483.26895   -3302.9751    671.15602   -3974.1311    685.34376    14987.713   -19650.202    309.28425   -1418.9099    11021.782   0.99095467 
  168000      485.209   -3327.7241    643.48556   -3971.2097     721.1792    14953.493   -19648.175    296.53306   -446.08256    10937.132   0.99862443 
  169000    487.10676   -3431.0038    640.85754   -4071.8613    803.41985    14771.642   -19650.096    295.32201    376.19715    10859.958    1.0057209 
  170000    489.25367   -3392.2951    632.96022   -4025.2553    780.55886    14838.676   -19647.453    291.68274    56.696342    10877.572    1.0040923 
  171000    492.07922   -3345.5847    636.41469   -3981.9994    714.60203    14949.089    -19649.18    293.27464   -1535.0279    11266.565   0.96942474 
  172000    494.84722   -3412.7904    624.36129   -4037.1517    797.10144    14813.176   -19649.883    287.72016    770.10845     10813.91    1.0100035 
  173000    497.32327   -3332.2803    635.28695   -3967.5672    704.08272    14974.011   -19650.007    292.75495   -1081.8724    11342.367   0.96294601 
  174000    499.19226   -3372.3767    600.06605   -3972.4427     711.3376    14958.707   -19647.835    276.52435   -963.09077     11005.88   0.99238652 
  175000    501.11676   -3378.6046    669.43573   -4048.0404    769.70451    14830.409   -19650.915     308.4915   -171.35864    10854.568    1.0062203 
  176000    503.01936   -3394.9346    634.14852   -4029.0831    693.23185    14923.391   -19648.477    292.23034   -1420.7325    10872.075       1.0046 
  177000    505.06396   -3411.4372    652.44563   -4063.8828    816.49405    14765.108   -19649.331    300.66207    808.65833    10842.157    1.0073721 
  178000    508.26742   -3366.5327    658.07457   -4024.6072    737.87074    14884.423   -19650.094    303.25602   -491.38544     11016.79   0.99140371 
  179000    511.57476   -3434.1251    629.75987    -4063.885      773.094    14804.889   -19647.271    290.20795   -650.98858    10960.219   0.99652083 
  180000    514.70512   -3383.3969    679.47789   -4062.8748    791.28905    14794.776   -19652.651    313.11917    390.13227    10803.493    1.0109774 
  181000    517.97242    -3388.246    636.14319   -4024.3892    823.56405    14798.147   -19650.585    293.14953    1415.4269    10861.759    1.0055541 
  182000    521.23139   -3408.0717    650.85109   -4058.9228    787.82137    14799.668   -19650.028    299.92727   -53.738357    10976.988   0.99499849 
  183000    524.54272   -3340.7676    643.08656   -3983.8542     743.8686     14917.46   -19648.747     296.3492   -242.82649    11011.924   0.99184185 
  184000    527.74844   -3433.1964    607.55441   -4040.7509    760.56557    14846.307    -19651.15    279.97516   -197.28739    10818.803    1.0095467 
  185000    530.94582   -3401.7191    644.98431   -4046.7034    753.52973    14846.192   -19648.963    297.22372    13.718959    10734.268    1.0174971 
  186000    534.12608    -3423.214    645.14548   -4068.3595    824.69067    14753.103   -19649.007      297.298    897.60049    10756.426    1.0154011 
  187000    537.23581   -3344.7412    649.84528   -3994.5864     752.1529     14901.88   -19652.455    299.46377   -316.55785    10904.143    1.0016456 
  188000    539.86768   -3324.6336    669.85221   -3994.4858    782.33881    14869.239   -19648.467    308.68343     344.3233    10934.187   0.99889334 
  189000    542.81487    -3337.352    659.23929   -3996.5913    737.23792    14910.279   -19647.745    303.79275   -427.15321    11004.478   0.99251298 
  190000    545.85026   -3408.1123    677.18274    -4085.295    814.76646    14747.084   -19649.094     312.0615    265.85399    10972.917   0.99536771 
  191000    548.22635   -3374.5792    652.43146   -4027.0106    798.72937    14819.149   -19648.559    300.65554    589.27577    10894.944    1.0024913 
  192000    550.15801   -3380.4072    663.81497   -4044.2222    764.97864    14837.259   -19648.504    305.90133    24.769315     10859.15    1.0057958 
  193000    552.10156   -3333.7718    665.59132   -3999.3631     777.8822    14869.312   -19650.441    306.71991    341.07365    10920.172    1.0001753 
  194000    554.11349   -3353.0683    659.14773   -4012.2161    728.41507    14904.858   -19649.309    303.75055   -526.17181    10900.056    1.0020212 
  195000     556.0744   -3353.3614    680.88951   -4034.2509    733.19005    14881.482   -19651.024    313.76967   -818.00122    10917.711    1.0004008 
  196000    558.79417   -3344.6073    652.72643   -3997.3337    746.06025    14902.023   -19648.103    300.79147    -542.4291    10965.793   0.99601433 
  197000    561.88103   -3361.3955    649.81715   -4011.2127    778.20383    14857.622   -19650.459    299.45081    758.15369    10855.892    1.0060976 
  198000    564.71123   -3375.0547    639.90978   -4014.9644    769.46044    14864.345   -19651.635    294.88526    541.36956    10764.059    1.0146811 
  199000    566.62662   -3340.6462    680.56676   -4021.2129    742.41536    14883.325   -19650.541    313.62094   -242.81889    10781.093    1.0130778 
  200000     568.5192   -3392.5132    655.59989   -4048.1131    788.37821    14810.426    -19650.31    302.11563    452.50967    10884.769    1.0034285 
Loop time of 568.519 on 12 procs for 200000 steps with 1089 atoms

Performance: 30.395 ns/day, 0.790 hours/ns, 351.791 timesteps/s
93.1% CPU use with 12 MPI tasks x 1 OpenMP threads

MPI task timing breakdown:
Section |  min time  |  avg time  |  max time  |%varavg| %total
---------------------------------------------------------------
Pair    | 225.29     | 244.44     | 283.93     | 111.9 | 43.00
Bond    | 0.13517    | 0.2753     | 1.2102     |  54.4 |  0.05
Kspace  | 121.44     | 161.43     | 181.09     | 137.9 | 28.40
Neigh   | 20.445     | 20.505     | 20.539     |   0.7 |  3.61
Comm    | 53.62      | 59.557     | 62.217     |  42.3 | 10.48
Output  | 0.012041   | 0.012435   | 0.016413   |   1.1 |  0.00
Modify  | 57.983     | 65.646     | 81.081     | 108.2 | 11.55
Other   |            | 16.66      |            |       |  2.93

Nlocal:        90.7500 ave         101 max          83 min
Histogram: 3 1 1 2 0 1 0 1 1 2
Nghost:        3759.42 ave        3809 max        3712 min
Histogram: 2 0 0 3 2 1 1 0 2 1
Neighs:        32260.6 ave       36917 max       28405 min
Histogram: 1 1 2 4 0 0 1 1 0 2

Total # of neighbors = 387127
Ave neighs/atom = 355.48852
Ave special neighs/atom = 2.0495868
Neighbor list builds = 8468
Dangerous builds = 4

reset_timestep 0
unfix NPT
fix NVT all nvt temp ${TK} ${TK} 100
fix NVT all nvt temp 300 ${TK} 100
fix NVT all nvt temp 300 300 100

variable dlambda equal  1.0
variable minusdl equal -1.0
variable dqC equal  (0.48+0.24)*v_dlambda
variable dqH equal -0.06*v_dlambda
variable dqF equal -0.12*v_dlambda

compute FEP all fep ${TK}     pair lj/cut/coul/long/soft lambda 2 4*5 v_minusdl     pair lj/cut/coul/long/soft lambda 3 4*5 v_dlambda     atom charge 1 v_dqC     atom charge 2 v_dqH     atom charge 3 v_dqF
compute FEP all fep 300     pair lj/cut/coul/long/soft lambda 2 4*5 v_minusdl     pair lj/cut/coul/long/soft lambda 3 4*5 v_dlambda     atom charge 1 v_dqC     atom charge 2 v_dqH     atom charge 3 v_dqF

fix FEP all ave/time 1 1 100 c_FEP[1] c_FEP[2] file bar01.fep

dump TRAJ all custom 5000 dump.lammpstrj id mol type element xu yu zu
dump_modify TRAJ element C H F H O

run 500000
PPPM initialization ...
  using 12-bit tables for long-range coulomb (src/lammps/src/kspace.cpp:339)
  G vector (1/distance) = 0.26771633
  grid = 12 12 12
  stencil order = 5
  estimated absolute RMS force accuracy = 0.025848288
  estimated relative force accuracy = 7.7841351e-05
  using double precision FFTW3
  3d grid and FFT values/proc = 1859 144
FEP settings ...
  temperature = 300.000000
  tail no
  lj/cut/coul/long/soft lambda 2-2 4-5
  lj/cut/coul/long/soft lambda 3-3 4-5
  1-1 charge
  2-2 charge
  3-3 charge
Neighbor list info ...
  update every 1 steps, delay 10 steps, check yes
  max neighbors/atom: 2000, page size: 100000
  master list distance cutoff = 12
  ghost atom cutoff = 12
  binsize = 6, bins = 4 4 4
  3 neighbor lists, perpetual/occasional/extra = 3 0 0
  (1) pair lj/cut/coul/long, perpetual, skip from (3)
      attributes: half, newton on
      pair build: skip
      stencil: none
      bin: none
  (2) pair lj/cut/coul/long/soft, perpetual, skip from (3)
      attributes: half, newton on
      pair build: skip
      stencil: none
      bin: none
  (3) neighbor class addition, perpetual
      attributes: half, newton on
      pair build: half/bin/newton
      stencil: half/bin/3d/newton
      bin: standard
Per MPI rank memory allocation (min/avg/max) = 17.62 | 17.63 | 17.63 Mbytes
Step CPU TotEng KinEng PotEng E_vdwl E_coul E_long Temp Press Volume Density 
       0            0   -3392.5233    655.59989   -4048.1232    788.37821    14629.081   -19468.975    302.11563    66.207268    10884.769    1.0034285 
    1000    1.6811173   -3299.5075    692.20562   -3991.7131    778.25752    14691.657   -19467.153     318.9844    531.54794    10884.769    1.0034285 
    2000    3.4266793   -3345.8401    672.15357   -4017.9937    754.89913     14692.39   -19468.044    309.74395   -147.16589    10884.769    1.0034285 
    3000    5.6563153   -3347.3876    680.24737    -4027.635    801.32207    14634.959   -19469.614    313.47376    608.24729    10884.769    1.0034285 
    4000    8.3285509   -3422.8843    642.07627   -4064.9605    749.54977    14646.739   -19465.434    295.88363    -798.2545    10884.769    1.0034285 
    5000    11.003447   -3395.7269    651.90953   -4047.6364    794.41883    14625.696   -19470.699    300.41502    424.90838    10884.769    1.0034285 
    6000    13.554516   -3379.3207    658.82739   -4038.1481    774.56484    14650.196   -19467.307    303.60294    264.50083    10884.769    1.0034285 
    7000     16.06654   -3328.1712    672.06632   -4000.2376    770.43733    14691.469   -19467.518    309.70374    374.91512    10884.769    1.0034285 
    8000    18.586977   -3346.4967    669.43289   -4015.9296    713.43009    14734.686   -19468.413    308.49019   -994.22271    10884.769    1.0034285 
    9000    21.139807   -3421.4727    630.54971   -4052.0224     736.3754     14677.94   -19470.208    290.57192   -796.49483    10884.769    1.0034285 
   10000    23.693652   -3358.3053    637.70114   -3996.0064    727.79701    14741.394   -19469.333    293.86747   -489.17242    10884.769    1.0034285 
   11000    26.356224   -3382.4087    618.63949   -4001.0482    741.78751    14716.947   -19465.321    285.08342    -330.3192    10884.769    1.0034285 
   12000    29.112214   -3334.5468    638.43918    -3972.986    747.02393    14738.603   -19465.776    294.20758   -68.170368    10884.769    1.0034285 
   13000    31.812909   -3371.0486    647.96184   -4019.0104    765.94159    14678.816   -19469.352    298.59584   -97.249564    10884.769    1.0034285 
   14000    34.538916   -3297.7217    678.51414   -3976.2359    668.98723    14819.716   -19468.779    312.67505   -1268.1136    10884.769    1.0034285 
   15000    37.266623    -3373.087    639.38201    -4012.469    767.32979    14680.789   -19468.002    294.64205    171.53467    10884.769    1.0034285 
   16000    40.009645   -3402.4215    652.00299   -4054.4245    771.91001    14636.237   -19469.143    300.45809   -197.81675    10884.769    1.0034285 
   17000    42.748199   -3354.9429    642.32354   -3997.2664    782.37106    14681.343   -19466.539    295.99758    514.80071    10884.769    1.0034285 
   18000    45.577128   -3344.8765    654.36132   -3999.2378    753.06347    14710.625   -19468.472    301.54486    26.607457    10884.769    1.0034285 
   19000     48.37701   -3369.9861    651.23758   -4021.2236    682.11084    14757.597   -19469.739    300.10537   -1381.4838    10884.769    1.0034285 
   20000    51.238304     -3372.16    644.79106   -4016.9511    761.96533    14683.158   -19468.941    297.13467    33.694074    10884.769    1.0034285 
   21000    54.015707   -3391.5503    634.23099   -4025.7813    728.48913    14708.684    -19469.76    292.26834   -694.66683    10884.769    1.0034285 
   22000    56.748778    -3332.257    649.13725   -3981.3943    739.20186     14741.91   -19467.548    299.13749   0.53749352    10884.769    1.0034285 
   23000    59.447737   -3334.7011    648.36185    -3983.063    763.34358    14713.701   -19466.712    298.78017    351.84157    10884.769    1.0034285 
   24000    62.111912   -3311.1433    671.52415   -3982.6675     741.0101    14733.039   -19466.072     309.4539   -399.81499    10884.769    1.0034285 
   25000    64.685375   -3386.7822    632.09186   -4018.8741    740.02281    14704.199   -19470.911    291.28258   -1002.7393    10884.769    1.0034285 
   26000    67.048266   -3430.0077    621.11236     -4051.12    816.18615    14595.604   -19467.786    286.22297    850.44682    10884.769    1.0034285 
   27000      69.2054   -3417.9883    652.66224   -4070.6505    746.17234    14644.289   -19468.924    300.76189   -501.95941    10884.769    1.0034285 
   28000    71.879128    -3352.973    634.50476   -3987.4777    792.88584    14678.588   -19466.619     292.3945    529.47638    10884.769    1.0034285 
   29000    74.522808   -3418.1756    641.58878   -4059.7643     821.6061    14579.297   -19465.982    295.65899    805.47244    10884.769    1.0034285 
   30000    77.171838   -3343.4995    663.09171   -4006.5912    753.23767    14701.935    -19467.09    305.56803    157.34857    10884.769    1.0034285 
   31000    79.798534   -3362.1992    607.29189   -3969.4911    719.52107    14770.077   -19466.154    279.85418   -872.39699    10884.769    1.0034285 
   32000    82.481369   -3377.2456    642.72578   -4019.9714    777.98481    14664.043   -19467.043    296.18294    70.648441    10884.769    1.0034285 
   33000    85.125024   -3374.4755    677.62709   -4052.1026    776.50672    14634.382    -19467.03    312.26627   -118.61804    10884.769    1.0034285 
   34000    87.693977   -3391.7554     630.0941   -4021.8495    793.58227    14647.164   -19468.672    290.36197     336.4751    10884.769    1.0034285 
   35000    89.550172   -3363.8961    653.24835   -4017.1445    783.07559    14658.706   -19466.708    301.03198    831.25835    10884.769    1.0034285 
   36000    92.042449    -3378.157    630.28905   -4008.4461    749.13541    14702.888   -19465.523    290.45181   -435.24553    10884.769    1.0034285 
   37000    94.675515   -3396.8788    636.51966   -4033.3984    786.47438     14640.41   -19466.285    293.32302    180.31598    10884.769    1.0034285 
   38000    97.317783   -3369.1654    656.56119   -4025.7265     820.3147    14615.021   -19466.701    302.55862    848.43605    10884.769    1.0034285 
   39000    99.949448   -3377.1989    661.29735   -4038.4963    780.48734    14642.238   -19468.079    304.74115    255.92285    10884.769    1.0034285 
   40000    102.60942   -3390.9886    647.44653   -4038.4351    757.42692    14668.825   -19468.007    298.35837   -475.42316    10884.769    1.0034285 
   41000    105.28411   -3350.2253    658.81357   -4009.0389    730.42814    14719.114   -19464.283    303.59657   -903.03585    10884.769    1.0034285 
   42000    107.89321   -3355.1829    634.64919   -3989.8321    717.07127    14753.812   -19467.937    292.46106   -820.68512    10884.769    1.0034285 
   43000     110.2896   -3373.1254    662.48847   -4035.6139    797.42473    14630.014   -19469.184    305.29005     732.6283    10884.769    1.0034285 
   44000    112.96943   -3342.8197    643.15451   -3985.9742    762.76344    14711.295   -19467.518    296.38051    252.72321    10884.769    1.0034285 
   45000    115.66085   -3392.7496    643.46918   -4036.2187    795.50991      14628.5   -19466.034    296.52551    460.31078    10884.769    1.0034285 
   46000    118.28419   -3345.3294    647.45671   -3992.7862    751.60875    14720.847   -19469.691    298.36306   -67.285324    10884.769    1.0034285 
   47000    120.92672   -3374.6939    650.82643   -4025.5203    803.91747    14632.871   -19469.068     299.9159    885.67175    10884.769    1.0034285 
   48000    123.54131   -3376.5834     656.4403   -4033.0237    728.45645    14702.693    -19469.04    302.50291   -592.86252    10884.769    1.0034285 
   49000    126.16474   -3302.6257    677.14869   -3979.7744    763.27829    14719.458   -19466.816    312.04582    579.20607    10884.769    1.0034285 
   50000    128.80017   -3394.6384    642.49782   -4037.1362    766.45009    14659.889   -19468.203    296.07789   -418.98788    10884.769    1.0034285 
   51000    131.48223   -3403.5465    631.70758   -4035.2541    771.11904    14657.269   -19467.996     291.1055    17.264108    10884.769    1.0034285 
   52000    134.22028    -3369.879    620.83184   -3990.7108    736.45855    14735.253   -19467.571    286.09371    -79.30133    10884.769    1.0034285 
   53000    137.03314    -3355.713    667.45254   -4023.1655    750.49151    14687.892   -19464.642     307.5776   -204.76425    10884.769    1.0034285 
   54000     140.0659   -3339.4836    644.53634   -3984.0199    774.20855    14704.183    -19469.11    297.01729   -21.870424    10884.769    1.0034285 
   55000     142.8789   -3248.5052    709.42519   -3957.9304    707.80441    14794.891    -19468.98    326.91957   -165.74795    10884.769    1.0034285 
   56000    145.47586   -3301.0284    658.78202   -3959.8105    704.22566    14798.124   -19467.571    303.58203   -276.54505    10884.769    1.0034285 
   57000    148.04988   -3352.8114    649.85313   -4002.6645    718.43598    14742.119   -19469.268    299.46739   -803.50287    10884.769    1.0034285 
   58000    150.62787   -3435.8725    630.39743     -4066.27    770.59375    14625.095   -19468.445    290.50175   -794.47088    10884.769    1.0034285 
   59000    153.23446   -3343.2966    661.03067   -4004.3273    788.14877    14670.463   -19466.965    304.61826    715.38661    10884.769    1.0034285 
   60000    155.86291   -3388.4494    662.45218   -4050.9016    771.51382    14637.842   -19468.024    305.27332    228.70354    10884.769    1.0034285 
   61000    158.41542    -3341.684    656.71252   -3998.3965    710.02044    14756.957   -19469.342    302.62835   -939.67674    10884.769    1.0034285 
   62000    160.90203   -3317.5062    633.12081    -3950.627    756.91435    14754.893   -19467.791    291.75675   -116.56738    10884.769    1.0034285 
   63000    163.46632    -3349.249    665.61313   -4014.8621    781.57201    14667.451   -19469.657    306.72996    137.78175    10884.769    1.0034285 
   64000    166.12552   -3296.4818    688.03213   -3984.5139    740.17128    14737.654   -19468.095    317.06115    320.87241    10884.769    1.0034285 
   65000    168.67528   -3316.3065    672.07188   -3988.3784    777.23737    14696.693   -19467.354     309.7063    636.33474    10884.769    1.0034285 
   66000    170.35008   -3381.5748    665.59937   -4047.1742    753.27584    14663.084   -19468.005    306.72362   -611.51143    10884.769    1.0034285 
   67000    172.36153   -3436.1104    638.38336   -4074.4938     771.9136    14620.585    -19469.51    294.18185   -624.63906    10884.769    1.0034285 
   68000     174.4599   -3331.1812    667.82988    -3999.011    748.29988    14717.236   -19469.158    307.75149    266.97949    10884.769    1.0034285 
   69000    177.08185   -3353.5416    659.14109   -4012.6827    768.60823    14682.912   -19467.344    303.74749    386.21889    10884.769    1.0034285 
   70000     179.6983   -3404.6246    632.16162   -4036.7862    813.50016    14614.534   -19469.311    291.31473    749.62239    10884.769    1.0034285 
   71000     182.3267   -3384.8668    636.17053   -4021.0373    736.18673    14706.881   -19468.253    293.16213   -621.97708    10884.769    1.0034285 
   72000    184.97665   -3406.7832    639.97066   -4046.7539    802.95794      14614.5   -19468.425    294.91332    747.74532    10884.769    1.0034285 
   73000    187.63822   -3350.1839    656.01408   -4006.1979    796.29969    14662.092   -19468.075     302.3065    1094.7749    10884.769    1.0034285 
   74000    190.31152   -3364.0697    641.24144   -4005.3111     708.3915    14751.579   -19468.594    295.49892   -1060.3998    10884.769    1.0034285 
   75000    192.94703   -3344.0246    619.05004   -3963.0746    714.57627    14787.263   -19469.194    285.27261   -695.76735    10884.769    1.0034285 
   76000    195.58904   -3348.1396    658.00002   -4006.1396    724.11817     14733.46   -19465.887    303.22166   -500.54075    10884.769    1.0034285 
   77000    198.23386   -3302.3014    683.31477   -3985.6162    799.39383    14677.221   -19466.192    314.88728    1169.1764    10884.769    1.0034285 
   78000    200.91817   -3355.1494    652.84212   -4007.9915    766.02973    14691.262   -19469.202    300.84478   -89.602404    10884.769    1.0034285 
   79000    203.18307   -3338.1582    663.94322   -4002.1014    731.94742    14730.828   -19469.086    305.96043   -514.05802    10884.769    1.0034285 
   80000    205.54876   -3305.6879    657.27741   -3962.9653    724.63653    14776.787   -19468.885    302.88867   -85.315398    10884.769    1.0034285 
   81000    208.20428   -3420.5065    649.28955   -4069.7961    825.56991     14569.69   -19469.393    299.20768    900.03551    10884.769    1.0034285 
   82000    210.96477   -3371.4178    650.22749   -4021.6453      718.597    14725.782   -19469.387     299.6399   -869.42154    10884.769    1.0034285 
   83000    213.62045     -3413.08    644.35951   -4057.4395    799.05883    14609.683   -19470.186     296.9358    159.67984    10884.769    1.0034285 
   84000    216.12916   -3387.3358     648.4488   -4035.7846    737.86969    14690.171    -19466.51    298.82024   -448.98917    10884.769    1.0034285 
   85000    217.78977   -3355.3349    651.60638   -4006.9412    763.37146    14691.793   -19467.511    300.27533    211.15989    10884.769    1.0034285 
   86000    220.24331    -3392.521    649.59384   -4042.1148    731.63559    14691.855   -19469.003     299.3479   -783.61319    10884.769    1.0034285 
   87000    222.85728   -3346.3695    649.33458   -3995.7041    742.91425    14725.386   -19469.239    299.22843   -339.24385    10884.769    1.0034285 
   88000    225.03915   -3352.5714    666.78268   -4019.3541    687.63084    14757.357   -19468.462    307.26892   -1587.4069    10884.769    1.0034285 
   89000    227.65977   -3404.9342    603.96862   -4008.9029    761.27643    14693.623   -19467.157    278.32274   -9.6654117    10884.769    1.0034285 
   90000    230.33312   -3388.3658    650.41591   -4038.7817    782.96102    14642.793   -19467.954    299.72673    35.503993    10884.769    1.0034285 
   91000    232.97093   -3345.3341    682.11092    -4027.445    756.44601    14681.236   -19468.634    314.33252   -299.00279    10884.769    1.0034285 
   92000    235.61364   -3358.6697    681.92535    -4040.595    757.04448    14669.511   -19469.866    314.24701   -352.88605    10884.769    1.0034285 
   93000    238.19708   -3398.8534    622.43523   -4021.2886    746.45093    14697.035   -19468.344    286.83258   -293.99367    10884.769    1.0034285 
   94000    240.91931   -3387.6874    625.71972   -4013.4071    785.29423    14668.442   -19469.791    288.34615    380.29332    10884.769    1.0034285 
   95000    243.45274   -3338.2567    657.14629    -3995.403    707.60283    14757.373   -19466.122    302.82824   -1259.7291    10884.769    1.0034285 
   96000    245.12248   -3346.2709     643.8836   -3990.1545    723.21226    14750.182    -19466.67    296.71649    -545.5226    10884.769    1.0034285 
   97000    246.87645    -3304.122    661.68987   -3965.8119    718.72307    14779.498   -19468.737    304.92203   -185.89581    10884.769    1.0034285 
   98000    248.95971   -3384.1246    633.68902   -4017.8136    713.00288    14734.686   -19468.944    292.01859   -851.96113    10884.769    1.0034285 
   99000    251.61686    -3317.834    694.86722   -4012.7012    708.60818    14743.924   -19468.702    320.21093   -1099.8099    10884.769    1.0034285 
  100000    254.37772   -3372.7172    649.88143   -4022.5987    733.96698     14707.79    -19467.51    299.48043   -597.95684    10884.769    1.0034285 
  101000    256.34824   -3435.4402    625.03479    -4060.475    789.53059     14615.97   -19470.526    288.03052    225.99984    10884.769    1.0034285 
  102000    258.79934   -3425.5736    639.52625   -4065.0999    750.05378     14650.15   -19467.654    294.70852   -572.89126    10884.769    1.0034285 
  103000    260.46195    -3333.926    659.51738   -3993.4434    757.30801    14710.804    -19466.38     303.9209   -358.44401    10884.769    1.0034285 
  104000    262.54144   -3389.8992      631.351   -4021.2502    752.08137    14694.458   -19470.392    290.94118   -237.00267    10884.769    1.0034285 
  105000     264.6734   -3415.1147    625.29265   -4040.4073    756.35163    14669.962   -19470.415    288.14935   -281.84399    10884.769    1.0034285 
  106000    266.35046   -3362.2713    666.64093   -4028.9122     728.0197    14707.008   -19467.447    307.20359   -668.83961    10884.769    1.0034285 
  107000    268.22001   -3430.7377     655.6673    -4086.405    803.62099    14577.727   -19470.435    302.14669    226.49862    10884.769    1.0034285 
  108000    269.88995   -3361.2862    631.43629   -3992.7225    738.09167    14735.144   -19468.752    290.98048   -382.52042    10884.769    1.0034285 
  109000     272.0943   -3391.7549    656.64697   -4048.4019    731.46183    14686.123   -19469.336    302.59815   -637.73354    10884.769    1.0034285 
  110000    274.69862   -3402.8856    654.59929   -4057.4849    754.83158    14652.555   -19468.706    301.65453   -470.27119    10884.769    1.0034285 
  111000    277.34594   -3407.6623    637.27419   -4044.9365    743.58123      14675.4     -19466.6    293.67072   -760.83259    10884.769    1.0034285 
  112000    279.95177   -3373.2725    669.32743   -4042.5999    797.16485    14624.093   -19467.521    308.44159    451.16773    10884.769    1.0034285 
  113000    282.53937   -3374.0439    635.31101   -4009.3549    767.44434    14689.266   -19469.928    292.76604    388.36057    10884.769    1.0034285 
  114000    285.15729   -3355.1053    672.59494   -4027.7002    808.32237    14629.692   -19469.661    309.94734    1002.8272    10884.769    1.0034285 
  115000    287.84578    -3359.004    660.70192   -4019.7059    731.84606    14710.561   -19465.158    304.46676   -457.49989    10884.769    1.0034285 
  116000    290.46333   -3382.5167    641.72191   -4024.2386    826.16333    14616.715    -19470.01    295.72033     1130.134    10884.769    1.0034285 
  117000    293.11821   -3376.6964    631.64923   -4008.3456    709.40616     14748.01   -19469.103    291.07861   -850.75899    10884.769    1.0034285 
  118000    295.72339   -3353.0927    647.77555   -4000.8682    772.26793    14687.698   -19465.814    298.50999    456.68483    10884.769    1.0034285 
  119000    298.37494    -3338.412    676.05272   -4014.4648    782.58297    14667.708   -19467.257    311.54076    274.30478    10884.769    1.0034285 
  120000    300.99892   -3369.5163    633.21226   -4002.7286    750.49722    14710.536   -19467.622    291.79889   -438.76584    10884.769    1.0034285 
  121000    303.65442   -3379.5503    679.62301   -4059.1733    830.62237    14575.648   -19468.974    313.18604    1031.6905    10884.769    1.0034285 
  122000    306.36223   -3408.1155    630.17182   -4038.2873    802.12111    14620.834   -19464.787    290.39779    687.35703    10884.769    1.0034285 
  123000    308.99604   -3385.1654    673.26825   -4058.4336    771.81722    14635.627   -19468.367    310.25762   -169.60669    10884.769    1.0034285 
  124000    311.61497   -3355.4717    665.61173   -4021.0834    779.70544    14662.198   -19466.818    306.72931    326.71386    10884.769    1.0034285 
  125000     314.1964   -3413.2915    577.00287   -3990.2943    756.46551    14717.923   -19468.351     265.8963    87.289663    10884.769    1.0034285 
  126000    316.84482   -3335.2806    678.38541    -4013.666    794.61202    14656.221   -19467.937    312.61572    1020.6936    10884.769    1.0034285 
  127000    319.50604   -3283.5149    664.32857   -3947.8434    763.02604    14755.259   -19468.246    306.13801    775.93419    10884.769    1.0034285 
  128000    322.13682   -3373.8856    639.74564   -4013.6312    742.36506    14707.571   -19467.014    294.80962   -398.08325    10884.769    1.0034285 
  129000    324.77479   -3316.7354    660.34091   -3977.0763    734.87128    14751.597   -19466.088     304.3004   -108.85228    10884.769    1.0034285 
  130000    327.41946   -3336.2285    646.68776   -3982.9163    723.25776    14755.649   -19465.563    298.00871   -390.60521    10884.769    1.0034285 
  131000    330.13089   -3333.7546     649.7099   -3983.4645    719.47086    14757.951   -19464.707    299.40138   -469.73629    10884.769    1.0034285 
  132000    332.77496   -3383.9317    632.88596   -4016.8177    767.51861    14679.273   -19468.121    291.64852   -32.841441    10884.769    1.0034285 
  133000    335.41413    -3318.103    661.95903    -3980.062    707.29948    14773.969   -19466.422    305.04607   -921.70961    10884.769    1.0034285 
  134000    338.08896   -3362.1376    675.41033    -4037.548    827.10475    14600.626   -19468.934    311.24474    1229.6827    10884.769    1.0034285 
  135000    340.76431   -3381.6526    656.57275   -4038.2253    782.67111    14645.401   -19470.416    302.56395    245.81591    10884.769    1.0034285 
  136000    343.43365     -3377.86    666.41106   -4044.2711    800.49377     14618.43   -19468.939    307.09767    426.56363    10884.769    1.0034285 
  137000    346.07992   -3382.3726    641.39997   -4023.7726    747.76814    14693.372   -19469.453    295.57198   -536.73743    10884.769    1.0034285 
  138000    348.78935   -3345.5697    653.26947   -3998.8391    767.24703    14698.378   -19469.453    301.04172    355.60992    10884.769    1.0034285 
  139000    351.32267   -3355.2993    612.52971   -3967.8291    675.35188    14819.646   -19467.639    282.26789   -1289.0079    10884.769    1.0034285 
  140000    353.74664   -3333.8551    660.69982   -3994.5549     809.6887    14656.643   -19466.852    304.46579    1016.7326    10884.769    1.0034285 
  141000    356.38253    -3381.564    643.86441   -4025.4284    803.64094    14635.815   -19468.831    296.70764    299.12721    10884.769    1.0034285 
  142000    358.90512   -3377.7551    659.76692    -4037.522    767.88666    14657.399   -19467.536    304.03589   -22.768233    10884.769    1.0034285 
  143000    361.46651   -3349.7929    680.67436   -4030.4673    746.59464    14684.466   -19464.971    313.67052    82.652939    10884.769    1.0034285 
  144000    363.32116   -3326.6441    660.58291    -3987.227    818.17919     14657.87   -19467.621    304.41192    1317.9243    10884.769    1.0034285 
  145000    365.50436   -3365.7544    631.42926   -3997.1837    763.96552    14700.804   -19466.086    290.97724   -105.08989    10884.769    1.0034285 
  146000    368.16025   -3344.4247    649.68837   -3994.1131    727.85648    14742.086   -19467.483    299.39146   -355.03079    10884.769    1.0034285 
  147000    370.81962   -3378.6909    627.45699   -4006.1479    746.64689    14709.924   -19467.548    289.14673   -198.59412    10884.769    1.0034285 
  148000    373.44352   -3429.7814    631.03043   -4060.8118      767.237    14639.081   -19469.981    290.79345   -420.63368    10884.769    1.0034285 
  149000     376.1374    -3357.891    643.88071   -4001.7717    714.23237    14746.074   -19467.232    296.71516    -1057.871    10884.769    1.0034285 
  150000    378.77271   -3361.3277     665.8545   -4027.1822    703.66681    14733.764   -19470.146    306.84119   -1199.8384    10884.769    1.0034285 
  151000    381.37587   -3404.2415    624.16728   -4028.4087    763.73152    14670.077   -19467.441    287.63075   -4.0930918    10884.769    1.0034285 
  152000    384.01752   -3368.3233    651.63157   -4019.9549    752.25876    14693.432   -19470.052    300.28693   -183.12237    10884.769    1.0034285 
  153000    386.52436   -3377.5069     662.4806   -4039.9875    731.96957    14691.856   -19468.361    305.28642   -1135.2687    10884.769    1.0034285 
  154000    389.07659   -3363.1688    652.40547   -4015.5742    780.40416     14667.85   -19468.263    300.64356    427.85141    10884.769    1.0034285 
  155000    391.76915   -3444.4944    634.84356    -4079.338    736.66354    14648.762   -19470.951    292.55063   -1113.2721    10884.769    1.0034285 
  156000    394.32012   -3386.8059    663.93153   -4050.7375    749.46481    14664.781   -19468.892    305.95504      -393.69    10884.769    1.0034285 
  157000    396.94056   -3340.4787    679.53156   -4020.0103    733.31061    14707.719   -19467.022     313.1439   -850.79112    10884.769    1.0034285 
  158000    399.60994   -3368.6396    624.31351   -3992.9531    754.87226    14713.063   -19465.387    287.69814   -172.20102    10884.769    1.0034285 
  159000    402.22364   -3367.6444    622.47728   -3990.1216    781.29773    14691.605   -19468.281    286.85196    998.58956    10884.769    1.0034285 
  160000    404.82473   -3321.1075    685.87596   -4006.9834    784.43289    14673.935   -19468.279    316.06754    847.06161    10884.769    1.0034285 
  161000    407.37673   -3365.1665    667.72145   -4032.8879    789.03301    14636.662   -19465.447    307.70152    142.33686    10884.769    1.0034285 
  162000    409.91225   -3401.9113    637.82712   -4039.7384    816.64869    14607.606   -19467.316    293.92552    860.48531    10884.769    1.0034285 
  163000    412.51154   -3306.9034    684.01049   -3990.9139    796.84652    14672.687   -19466.457    315.20789    824.52006    10884.769    1.0034285 
  164000    415.15033   -3371.2194    655.03301   -4026.2525     763.9988    14675.184   -19470.658     301.8544    210.49734    10884.769    1.0034285 
  165000    417.82182   -3360.1731    668.50908   -4028.6822    752.80506    14681.919   -19467.549    308.06448   -492.03438    10884.769    1.0034285 
  166000    420.57796   -3354.3437    678.98888   -4033.3326    753.11957    14672.599    -19465.36    312.89382    -554.7883    10884.769    1.0034285 
  167000    423.23362   -3370.0094    632.29966    -4002.309    729.55857    14734.192   -19468.276    291.37834   -122.74061    10884.769    1.0034285 
  168000    425.87754   -3283.0421    654.22991    -3937.272    741.82963    14782.293   -19466.475    301.48431    302.24206    10884.769    1.0034285 
  169000    428.52211     -3403.52    633.58546   -4037.1055    712.60139    14712.192   -19464.847    291.97087    -1023.845    10884.769    1.0034285 
  170000    431.23118   -3349.5386    668.86008   -4018.3987    756.22493    14687.979   -19466.563    308.22623    -214.0429    10884.769    1.0034285 
  171000    433.86091   -3346.9785    617.58865   -3964.5671    736.73776    14761.192   -19467.157    284.59917   -8.1693663    10884.769    1.0034285 
  172000    436.46468    -3329.987    639.32339   -3969.3104    747.83984    14748.841   -19470.207    294.61504    193.05063    10884.769    1.0034285 
  173000    439.14827   -3342.9271    621.40226   -3964.3294    724.35429    14776.061   -19469.474    286.35657   -188.70598    10884.769    1.0034285 
  174000    441.81504   -3416.0736    623.88146   -4039.9551    712.32435    14710.246   -19466.978    287.49904   -1611.4715    10884.769    1.0034285 
  175000    444.46156   -3393.4325    636.69544    -4030.128     750.6048    14686.686   -19469.752    293.40402   -650.46377    10884.769    1.0034285 
  176000    447.11081   -3313.2938    632.29168   -3945.5854    743.69777    14768.411   -19463.662    291.37466    335.33165    10884.769    1.0034285 
  177000    449.76112   -3313.4423    678.65993   -3992.1022    760.14514     14708.76   -19465.198    312.74223    683.38668    10884.769    1.0034285 
  178000    452.44544   -3337.3557     662.3539   -3999.7096     752.4629    14711.925   -19468.982    305.22803   -24.141585    10884.769    1.0034285 
  179000    455.11829   -3348.8175    636.87015   -3985.6877    729.77513    14749.367   -19468.648    293.48453   -533.49811    10884.769    1.0034285 
  180000    457.85018   -3373.8417    669.77165   -4043.6134     772.5247     14650.04   -19468.487     308.6463     116.5203    10884.769    1.0034285 
  181000    460.62973   -3304.9104    666.67184   -3971.5822    706.11895    14785.251   -19469.532    307.21784   -321.62601    10884.769    1.0034285 
  182000    463.40181   -3354.7827    647.23099   -4002.0137    756.93896    14707.414   -19469.113    298.25904    24.866105    10884.769    1.0034285 
  183000    466.26482   -3335.6985    677.08864   -4012.7871    798.52093    14650.565   -19467.505    312.01814    532.73893    10884.769    1.0034285 
  184000    468.98826    -3382.947    628.46077   -4011.4078    783.85739    14663.323   -19463.444    289.60929     393.8129    10884.769    1.0034285 
  185000    471.69198   -3349.8535    641.21329   -3991.0668    778.89497    14691.482   -19466.157    295.48595    886.95073    10884.769    1.0034285 
  186000    474.20354   -3331.9405    682.16982   -4014.1104    784.08143    14663.376   -19467.272    314.35967    634.37353    10884.769    1.0034285 
  187000    476.68762   -3331.2489    638.51279   -3969.7617    803.23315    14691.162   -19466.992     294.2415    1051.9548    10884.769    1.0034285 
  188000    478.35218   -3349.3572    657.95895   -4007.3161    699.56638    14755.986   -19466.969    303.20274   -1330.2212    10884.769    1.0034285 
  189000    480.09534   -3391.6665    644.05084   -4035.7173    779.58847    14648.284   -19467.064    296.79356    207.75893    10884.769    1.0034285 
  190000    482.70512   -3323.1833     649.3979   -3972.5812    706.66554    14784.596   -19466.831    299.25761   -764.89869    10884.769    1.0034285 
  191000    485.34484   -3385.0371    625.02681   -4010.0639    770.94012    14682.237   -19469.587    288.02684    203.69793    10884.769    1.0034285 
  192000    487.86923   -3391.0237      665.478   -4056.5017    761.50543    14647.788   -19467.711    306.66769   -375.64892    10884.769    1.0034285 
  193000    490.39699    -3341.727    666.32368   -4008.0506    713.03157    14743.299   -19468.569     307.0574   -806.47679    10884.769    1.0034285 
  194000    492.90653   -3342.2169     659.3321    -4001.549    771.43846    14692.028   -19467.865    303.83552    421.66546    10884.769    1.0034285 
  195000     495.3983   -3413.8877    636.24381   -4050.1315    805.55754    14607.304   -19465.639     293.1959    228.69878    10884.769    1.0034285 
  196000    497.92083   -3435.2958    627.68891   -4062.9847    837.19043    14563.669   -19468.003     289.2536    671.25048    10884.769    1.0034285 
  197000    500.41325   -3368.2776    647.65194   -4015.9295    812.99996    14631.101   -19464.931    298.45303     1132.062    10884.769    1.0034285 
  198000    502.98818   -3412.8338    635.17156   -4048.0054    749.17161    14669.237   -19469.992    292.70178   -358.30953    10884.769    1.0034285 
  199000    505.57383   -3431.4492     609.8524   -4041.3016    733.29618    14688.049   -19467.428    281.03412   -1156.3139    10884.769    1.0034285 
  200000    508.17781   -3429.3515    628.90051    -4058.252    750.01862    14654.563   -19467.592    289.81193   -729.77358    10884.769    1.0034285 
  201000    510.68655   -3399.7395    671.98315   -4071.7227    769.18594    14624.039   -19468.167    309.66542   -83.176593    10884.769    1.0034285 
  202000    513.16451   -3365.6885     661.9889   -4027.6774    772.51782    14664.399   -19468.258    305.05983    384.41409    10884.769    1.0034285 
  203000     515.6098   -3360.7922    661.54859   -4022.3408    803.95474    14638.759   -19469.201    304.85693    715.76227    10884.769    1.0034285 
  204000    518.12318    -3372.668    637.51924   -4010.1872    755.64132    14697.679   -19466.996    293.78364   -483.50843    10884.769    1.0034285 
  205000    520.71149   -3308.3846    666.15634   -3974.5409    776.65522    14713.904    -19467.75    306.98028    682.95362    10884.769    1.0034285 
  206000    523.30521    -3377.539    651.36015   -4028.8992    801.64178    14632.983   -19468.035    300.16186    732.19696    10884.769    1.0034285 
  207000    525.96617   -3411.6237    620.08651   -4031.7102    790.72173    14643.006   -19469.413    285.75024    266.89881    10884.769    1.0034285 
  208000    528.57154   -3377.8497    640.39718   -4018.2469    793.62509    14652.086   -19467.056    295.10986    303.76314    10884.769    1.0034285 
  209000    531.14725   -3369.9034    657.09636   -4026.9998     828.8403    14607.003   -19467.469    302.80524    1132.0487    10884.769    1.0034285 
  210000     533.8277   -3390.0527    636.84519   -4026.8979    732.69568    14701.043   -19466.133    293.47303   -426.55324    10884.769    1.0034285 
  211000    536.30923   -3359.5711    667.33287    -4026.904     806.4725     14631.87   -19467.887    307.52246    750.90361    10884.769    1.0034285 
  212000    538.84437   -3396.2799    640.95055   -4037.2304    773.24484    14654.894    -19469.91    295.36487   -30.901848    10884.769    1.0034285 
  213000    541.21433   -3359.9974    661.84511   -4021.8426    727.11517    14716.854   -19468.647    304.99357   -714.33556    10884.769    1.0034285 
  214000    543.84765   -3374.9383    667.63916   -4042.5775    775.97464    14643.448   -19467.425     307.6636    187.74576    10884.769    1.0034285 
  215000    546.55128     -3361.24    652.80216   -4014.0421    776.30579    14674.883   -19469.747    300.82637    217.34438    10884.769    1.0034285 
  216000    549.16093   -3326.7562    659.05682    -3985.813    724.10848    14752.874   -19468.232    303.70866   -794.53182    10884.769    1.0034285 
  217000    550.95202   -3335.5083    679.63206   -4015.1404    764.44056    14687.112   -19470.067    313.19021    412.16096    10884.769    1.0034285 
  218000    552.69949    -3351.483    642.92259   -3994.4056     763.8482    14701.007   -19467.173    296.27363    106.50066    10884.769    1.0034285 
  219000    555.35976   -3409.9543     639.3894   -4049.3437      773.198    14640.744   -19467.327    294.64546   -61.647776    10884.769    1.0034285 
  220000    558.03253   -3365.0511    634.16465   -3999.2157    735.91222    14727.993   -19467.875    292.23777   -836.70144    10884.769    1.0034285 
  221000    560.77497   -3275.6547    684.54401   -3960.1987    696.59688    14807.141   -19470.266    315.45375   -831.47446    10884.769    1.0034285 
  222000    563.40221   -3381.9953    641.11041   -4023.1057    737.17953    14704.956   -19470.524    295.43854    -386.2578    10884.769    1.0034285 
  223000    565.98714   -3346.7214    669.63944   -4016.3608    764.99511    14681.791   -19467.035    308.58538    131.44267    10884.769    1.0034285 
  224000    568.64084   -3341.1331    659.31494    -4000.448    743.51061    14716.141    -19467.12    303.82761    -394.5274    10884.769    1.0034285 
  225000    571.25924   -3365.2193    649.69632   -4014.9156    718.72837    14733.588   -19470.979    299.39512   -811.30002    10884.769    1.0034285 
  226000    573.88678   -3432.5057    609.23441   -4041.7401    705.11321    14713.232   -19468.253    280.74934   -959.77533    10884.769    1.0034285 
  227000    576.58334   -3380.6092    651.04859   -4031.6578    741.99769      14690.5   -19468.985    300.01828   -362.48627    10884.769    1.0034285 
  228000    579.24997   -3377.0038    636.67632   -4013.6801    762.12279    14688.462   -19469.398    293.39521   -292.68044    10884.769    1.0034285 
  229000    581.91888   -3385.7143    609.84966    -3995.564    718.56474    14748.971    -19468.67    281.03286   -1045.1699    10884.769    1.0034285 
  230000    584.65878   -3341.2666    654.00588   -3995.2725    697.81774    14768.889    -19468.01    301.38107   -981.94707    10884.769    1.0034285 
  231000    587.30478   -3377.1976    640.35742   -4017.5551    684.04524     14760.22   -19467.574    295.09154   -1644.8601    10884.769    1.0034285 
  232000    590.07226    -3380.253    633.40827   -4013.6613    701.44714    14749.688   -19468.104    291.88921   -1349.4399    10884.769    1.0034285 
  233000    592.85041    -3349.072    648.05896    -3997.131    733.86479    14731.427   -19467.629    298.64059   -594.82289    10884.769    1.0034285 
  234000    595.61279    -3393.087    632.52213   -4025.6092    782.61213    14655.198   -19469.474    291.48086    416.54238    10884.769    1.0034285 
  235000    598.33256   -3356.3313    639.07214   -3995.4034    748.80125    14716.283     -19468.6    294.49926   -264.16745    10884.769    1.0034285 
  236000    601.01377    -3366.247    651.57753   -4017.8245     726.5405    14719.461   -19469.335    300.26203   -843.12742    10884.769    1.0034285 
  237000    603.67269   -3371.7773    622.17865   -3993.9559    785.46939    14678.029   -19464.319    286.71435    252.77516    10884.769    1.0034285 
  238000    606.33347   -3363.2348    621.64572   -3984.8805    726.79043    14750.753   -19465.997    286.46876   -276.94763    10884.769    1.0034285 
  239000    609.13193   -3383.6128    612.63979   -3996.2526    746.19351    14717.629   -19467.949    282.31862   -10.811572    10884.769    1.0034285 
  240000    611.90972   -3360.3443    660.58998   -4020.9343    703.00871    14740.919   -19467.506    304.41518   -1117.4766    10884.769    1.0034285 
  241000    614.45758   -3367.0347     651.8969   -4018.9316    754.85492     14687.79   -19468.959     300.4092   -310.30589    10884.769    1.0034285 
  242000    617.00498   -3336.8891    675.77227   -4012.6614    720.50167    14730.066   -19468.545    311.41153   -629.49287    10884.769    1.0034285 
  243000     619.5321   -3471.9733    604.36181   -4076.3351    759.03988    14627.349   -19468.871    278.50393   -353.41503    10884.769    1.0034285 
  244000    622.05001   -3356.3851    644.65108   -4001.0362    738.08784    14722.497   -19466.853    297.07016   -561.13259    10884.769    1.0034285 
  245000    624.71222   -3303.4384    669.82551   -3973.2639    682.63561    14803.128   -19467.636    308.67112   -1372.7797    10884.769    1.0034285 
  246000    627.46348    -3323.935    687.44347   -4011.3784    750.35213    14703.054   -19468.738    316.78989   -160.63452    10884.769    1.0034285 
  247000    630.16401   -3329.2448      656.389   -3985.6339      708.757      14767.9   -19468.032    302.47927   -545.95626    10884.769    1.0034285 
  248000    632.76757   -3342.9018    674.28921    -4017.191    744.18489    14702.606   -19467.877     310.7281   -421.04643    10884.769    1.0034285 
  249000    635.47957   -3358.8594    641.88561    -4000.745     760.8686    14698.408   -19466.425    295.79577   -266.24875    10884.769    1.0034285 
  250000    638.06013   -3280.6637    673.55374   -3954.2174     756.2789    14753.273   -19466.966    310.38918    368.45116    10884.769    1.0034285 
  251000    640.66669   -3305.4772    664.53244   -3970.0097    717.95008    14776.236   -19469.049    306.23195   -339.62998    10884.769    1.0034285 
  252000    643.28133   -3362.5697    647.51008   -4010.0798    763.88481     14690.92   -19468.546    298.38765    157.32221    10884.769    1.0034285 
  253000    645.93594   -3344.9923    696.24185   -4041.2342    806.76937    14614.715   -19468.168    320.84439    521.42136    10884.769    1.0034285 
  254000    648.70031   -3392.9205    674.11595   -4067.0364    746.77146    14651.402   -19469.346    310.64826   -609.68335    10884.769    1.0034285 
  255000    651.41085    -3357.568    652.14607    -4009.714    769.25273    14682.857   -19466.063    300.52403    610.57453    10884.769    1.0034285 
  256000    654.18897   -3423.7712    653.21253   -4076.9837    742.67583    14645.331   -19468.972    301.01548   -762.55302    10884.769    1.0034285 
  257000    656.97974   -3355.1078    671.05054   -4026.1584    728.07285    14706.124   -19465.123    309.23565   -858.10292    10884.769    1.0034285 
  258000    659.65418   -3395.7409    671.55559   -4067.2965    779.93213    14613.647   -19467.228    309.46838   -373.25676    10884.769    1.0034285 
  259000    662.36591   -3404.7054    627.08298   -4031.7884    801.75633    14629.697   -19467.749    288.97438    876.14172    10884.769    1.0034285 
  260000    665.11907   -3319.6166    672.43369   -3992.0502    764.09061    14707.447   -19469.062    309.87303    303.14319    10884.769    1.0034285 
  261000    667.87046   -3255.5092    677.62028   -3933.1294    699.93063    14832.277   -19468.446    312.26313    -674.5722    10884.769    1.0034285 
  262000    670.59007   -3314.3562    687.60884    -4001.965    728.39842    14735.134   -19469.409    316.86609   -811.32014    10884.769    1.0034285 
  263000    673.25625   -3359.2947    601.95619   -3961.2509    771.34962    14731.848   -19467.482    277.39537    604.60835    10884.769    1.0034285 
  264000    675.95593   -3417.5629    641.53689   -4059.0998    756.40506    14648.056   -19467.841    295.63507   -242.62863    10884.769    1.0034285 
  265000    678.64495   -3378.2959     672.0717   -4050.3676    779.33216    14632.772   -19466.853    309.70622   -37.026653    10884.769    1.0034285 
  266000    681.27685   -3402.6231    649.73369   -4052.3568    720.97356    14692.321   -19469.453    299.41235   -1276.9877    10884.769    1.0034285 
  267000     683.9392   -3346.8515    644.83914   -3991.6907     750.9288    14722.501   -19468.566    297.15683    299.35451    10884.769    1.0034285 
  268000    686.58562   -3349.2511    668.95197   -4018.2031    734.29177     14710.58   -19469.224    308.26857   -557.66475    10884.769    1.0034285 
  269000    689.23617   -3354.2347    660.31197   -4014.5467    753.03311    14699.286   -19469.206    304.28706   -101.04086    10884.769    1.0034285 
  270000    691.89638   -3337.2251    669.05752   -4006.2826    794.00833    14662.131   -19466.593    308.31721    460.42048    10884.769    1.0034285 
  271000    694.55957    -3358.078    627.31978   -3985.3978    775.75604    14702.887   -19467.043     289.0835    655.55281    10884.769    1.0034285 
  272000    697.18203   -3352.7712    637.12218   -3989.8933    725.91614    14748.402   -19468.461    293.60067   -330.39616    10884.769    1.0034285 
  273000    699.81925   -3306.8306    657.53336    -3964.364    691.58954     14810.47   -19469.312    303.00662   -1048.7404    10884.769    1.0034285 
  274000     702.5228    -3361.302    650.85993    -4012.162    735.09012     14719.28   -19469.707    299.93134   -690.63364    10884.769    1.0034285 
  275000    705.27982   -3368.1153    670.32303   -4038.4383    733.22696     14692.59   -19468.636    308.90039   -753.43048    10884.769    1.0034285 
  276000    707.93677   -3308.5939    671.03889   -3979.6328    715.09595    14769.614   -19469.636    309.23028   -191.81639    10884.769    1.0034285 
  277000    710.57925   -3413.9236    619.37879   -4033.3023    686.41919    14742.848   -19467.394    285.42411   -1739.8213    10884.769    1.0034285 
  278000    713.27859   -3377.4995    650.45789   -4027.9574    787.73234    14644.817   -19465.021    299.74608    162.98007    10884.769    1.0034285 
  279000    715.82588   -3381.0971     641.5491   -4022.6462    802.34104    14637.195       -19466     295.6407    515.59872    10884.769    1.0034285 
  280000    718.41479   -3433.0474    611.59708   -4044.6445    793.23151     14627.93    -19468.78    281.83811     396.6424    10884.769    1.0034285 
  281000    720.92604   -3420.9264    636.65459    -4057.581    720.43944    14687.264   -19467.431     293.3852   -1231.5916    10884.769    1.0034285 
  282000     723.5159   -3359.3288    664.25003   -4023.5789    822.36901    14616.996   -19468.162    306.10181    897.95114    10884.769    1.0034285 
  283000    726.11028   -3417.3798    631.55384   -4048.9337    779.04586    14636.465   -19469.563    291.03465    -236.8237    10884.769    1.0034285 
  284000    728.77949   -3402.1373    641.47028   -4043.6076    730.73431    14689.645   -19467.634    295.60438     -922.518    10884.769    1.0034285 
  285000    731.40917   -3392.9336    633.47318   -4026.4068    788.52312    14647.347   -19467.422    291.91913    474.61408    10884.769    1.0034285 
  286000    734.04474   -3412.0268    625.01497   -4037.0418    820.76057    14607.062   -19470.367    288.02139     625.0519    10884.769    1.0034285 
  287000    736.26268   -3371.0516    651.97616   -4023.0278    750.90345    14691.759   -19469.325    300.44573   -281.85761    10884.769    1.0034285 
  288000    738.91419   -3350.0817    671.46257   -4021.5443    787.11759    14652.367   -19466.957    309.42552    624.38879    10884.769    1.0034285 
  289000     741.5952    -3336.123    654.48484   -3990.6079    803.07114    14664.806   -19465.712    301.60178    1515.1424    10884.769    1.0034285 
  290000    744.26411   -3355.4485    659.82961   -4015.2781     781.0027     14665.31   -19466.031    304.06478    281.53982    10884.769    1.0034285 
  291000     746.8633   -3370.3465    630.78629   -4001.1328    786.61616    14675.637   -19467.827    290.68095    441.66186    10884.769    1.0034285 
  292000     749.5248   -3365.0181    647.97398   -4012.9921    728.64957    14720.665    -19469.19    298.60143   -802.15417    10884.769    1.0034285 
  293000    752.15803   -3379.8522    617.42888    -3997.281    774.28749    14690.255   -19466.462    284.52554    489.96721    10884.769    1.0034285 
  294000    754.79968   -3289.1895    687.80248    -3976.992    815.98453    14667.985   -19466.572    316.95533    1179.7409    10884.769    1.0034285 
  295000    757.43222   -3380.6826    634.27348   -4014.9561    750.78069     14698.94   -19470.432    292.28792   -713.27955    10884.769    1.0034285 
  296000    760.07634   -3400.3681     635.1225   -4035.4906    799.77664    14629.272   -19467.374    292.67917    670.53979    10884.769    1.0034285 
  297000    762.68238   -3315.8347    672.47392   -3988.3086    685.13498    14788.909   -19467.059    309.89157   -1119.4632    10884.769    1.0034285 
  298000    765.28443   -3346.4535    703.38934   -4049.8428    695.45731    14721.821    -19469.81    324.13811   -1432.0324    10884.769    1.0034285 
  299000    767.59746   -3369.3501    662.71918   -4032.0693    792.11695    14635.429   -19465.474    305.39636   -38.166309    10884.769    1.0034285 
  300000    770.17501   -3415.3236    638.65141    -4053.975    819.96725    14589.455   -19468.644    294.30537    998.73331    10884.769    1.0034285 
  301000    772.77984   -3362.8979    671.45061   -4034.3485    789.36236    14638.055   -19468.346       309.42     506.6707    10884.769    1.0034285 
  302000     775.4508   -3418.3663    656.44518   -4074.8115    729.13802    14661.261   -19467.869    302.50516   -980.18082    10884.769    1.0034285 
  303000    778.14444   -3387.1644    666.38577   -4053.5502    782.85699    14627.935   -19469.983    307.08601   -112.84127    10884.769    1.0034285 
  304000    780.88908   -3370.4896    660.99842    -4031.488    796.54613    14635.553   -19467.594    304.60339    424.87621    10884.769    1.0034285 
  305000    783.67787   -3351.8786    639.14837    -3991.027    727.33933    14745.525   -19469.677    294.53439   -267.43229    10884.769    1.0034285 
  306000    786.31607   -3353.0354    656.57961    -4009.615    816.41421    14639.467   -19470.108     302.5671    1012.1031    10884.769    1.0034285 
  307000    788.90445   -3408.1252    612.94679    -4021.072    792.29434    14653.462   -19470.973    282.46009    450.70667    10884.769    1.0034285 
  308000    791.54416   -3294.2874    682.12285   -3976.4103    807.34876    14678.531   -19466.618    314.33802    1024.2177    10884.769    1.0034285 
  309000    794.19916   -3355.8693    650.40425   -4006.2736    750.94817    14704.769   -19469.022    299.72136    76.762986    10884.769    1.0034285 
  310000    796.85475   -3372.4712    662.88886   -4035.3601    802.55319     14627.21    -19469.35    305.47456    465.21494    10884.769    1.0034285 
  311000    799.50056    -3389.423    610.53899   -3999.9619     746.5339    14718.329   -19468.518    281.35052   -472.89518    10884.769    1.0034285 
  312000    802.20876   -3343.5492     638.6298    -3982.179    730.17741    14750.913   -19468.262    294.29542   -418.88762    10884.769    1.0034285 
  313000    804.95506   -3388.8989    652.00008    -4040.899    776.53315    14644.562   -19469.802    300.45675    388.83223    10884.769    1.0034285 
  314000    807.71762    -3318.134    685.37936   -4003.5133     715.7835     14745.43   -19469.232     315.8387   -296.69322    10884.769    1.0034285 
  315000    810.43699   -3407.1884     636.7213   -4043.9097    722.39931    14694.346   -19468.072    293.41594   -1219.6633    10884.769    1.0034285 
  316000    813.18051   -3359.6231    630.99593    -3990.619    758.08954    14714.145    -19468.27    290.77755     75.83574    10884.769    1.0034285 
  317000    815.86738    -3325.668    679.42062   -4005.0886    717.58337    14735.157   -19464.967    313.09277    -624.1108    10884.769    1.0034285 
  318000    818.59757   -3355.4854    665.02299   -4020.5084    785.33885    14657.142   -19469.112    306.45801    777.21026    10884.769    1.0034285 
  319000    821.23879   -3314.8148    648.85669   -3963.6714    736.69402    14761.948   -19469.955    299.00821   -299.70499    10884.769    1.0034285 
  320000    823.85949   -3386.6117    644.98846   -4031.6001    735.17696    14695.376   -19468.496    297.22564   -1132.6383    10884.769    1.0034285 
  321000    826.47557   -3438.5103    648.89388   -4087.4042    756.85311    14618.434   -19468.024    299.02534   -549.88215    10884.769    1.0034285 
  322000    829.09298   -3367.3214    645.71507   -4013.0365    714.11209    14732.593   -19466.827    297.56048   -422.53858    10884.769    1.0034285 
  323000    831.81951   -3270.5577    640.09093   -3910.6486    689.27978     14860.56   -19465.827    294.96874   -517.39714    10884.769    1.0034285 
  324000    834.47404   -3319.9614    639.72592   -3959.6873    723.14703    14776.479   -19466.004    294.80054   -969.09766    10884.769    1.0034285 
  325000    837.08871   -3447.0797    646.36613   -4093.4458     810.0146    14559.904   -19467.207     297.8605    458.81059    10884.769    1.0034285 
  326000    839.70822   -3366.0662    648.37715   -4014.4434    763.54442    14684.284   -19468.302    298.78722     392.4529    10884.769    1.0034285 
  327000    842.34956   -3349.4078    696.66106   -4046.0688    790.69376    14629.385   -19469.388    321.03757    364.10039    10884.769    1.0034285 
  328000    845.09232   -3344.6867    624.67102   -3969.3577    733.36577     14759.02   -19466.801    287.86289   -425.78776    10884.769    1.0034285 
  329000     847.6893   -3379.2777     652.5096   -4031.7873     728.0463    14703.706   -19466.785    300.69155   -903.43962    10884.769    1.0034285 
  330000    850.38537   -3359.4014    623.79058    -3983.192    714.41424    14763.116   -19467.027    287.45716   -572.20171    10884.769    1.0034285 
  331000    853.07731   -3432.3124    610.30287   -4042.6153    758.32176    14662.163    -19467.11    281.24171   -186.47849    10884.769    1.0034285 
  332000    855.71978   -3320.4199     693.1081    -4013.528    766.14637    14684.679   -19471.408    319.40028   -98.263448    10884.769    1.0034285 
  333000    857.63159   -3362.8342    663.45281    -4026.287    756.53192    14679.522   -19466.643    305.73444   -154.08172    10884.769    1.0034285 
  334000    860.26798   -3337.9987    635.59947   -3973.5982    740.20422    14746.884   -19466.085    292.89897    158.56507    10884.769    1.0034285 
  335000    862.86622   -3362.0941    647.10059   -4009.1946    772.95123    14682.441   -19470.408    298.19895    746.06052    10884.769    1.0034285 
  336000     865.4636   -3325.2248    653.89841   -3979.1232    733.14046    14749.918   -19468.067    301.33155    -139.1755    10884.769    1.0034285 
  337000    868.12144   -3360.2773    668.38151   -4028.6588     742.9892    14692.198   -19468.621    308.00569    -480.0084    10884.769    1.0034285 
  338000    870.77301   -3355.1951    669.16675   -4024.3618    740.83334    14698.921   -19468.781    308.36755   -51.889986    10884.769    1.0034285 
  339000     873.3903   -3354.0928    661.58182   -4015.6746     760.9837    14689.518    -19469.61    304.87224   -33.466639    10884.769    1.0034285 
  340000     875.6021   -3370.0594    659.66995   -4029.7294    797.84887     14636.68   -19467.541    303.99121      524.768    10884.769    1.0034285 
  341000    877.92098   -3356.0406    663.45274   -4019.4933    703.26513    14741.069   -19468.565     305.7344   -1257.6723    10884.769    1.0034285 
  342000     879.6098   -3323.2966    665.17748   -3988.4741    724.91082    14748.946   -19468.062     306.5292   -198.64463    10884.769    1.0034285 
  343000    881.37428   -3392.6928    655.56726   -4048.2601      781.857    14634.216   -19468.784    302.10059    368.59537    10884.769    1.0034285 
  344000    883.91745   -3310.0296    661.59489   -3971.6245    799.57015    14692.212   -19468.097    304.87826    978.42763    10884.769    1.0034285 
  345000    886.58376   -3346.4427    631.64449   -3978.0872    745.86616    14738.656    -19466.96    291.07642    17.131169    10884.769    1.0034285 
  346000    889.22058   -3338.4562    624.48417   -3962.9404    711.91498    14788.138   -19468.229    287.77678   -232.87732    10884.769    1.0034285 
  347000    891.90808   -3335.9282    655.13972   -3991.0679    657.24337    14812.846   -19468.183    301.90357   -1650.9766    10884.769    1.0034285 
  348000     894.5854   -3354.2668    667.28782   -4021.5546    764.40293    14678.764   -19469.332     307.5017    17.993125    10884.769    1.0034285 
  349000     897.2708   -3359.4183    659.10956   -4018.5278    734.02304    14706.949   -19465.665    303.73296   -882.81744    10884.769    1.0034285 
  350000    899.86737   -3392.8583    644.60506   -4037.4633    794.02517    14631.695   -19469.156    297.04895    704.43023    10884.769    1.0034285 
  351000    902.61593   -3347.2424    661.73602   -4008.9784    761.66722     14690.43   -19466.177     304.9433    258.59051    10884.769    1.0034285 
  352000    905.32911   -3364.2271    637.43892    -4001.666     747.2429    14714.674   -19468.337    293.74663   -430.74608    10884.769    1.0034285 
  353000     907.9776   -3368.8418    632.53801   -4001.3798    793.00306    14668.231   -19467.325    291.48818    479.58861    10884.769    1.0034285 
  354000    910.62759   -3292.0684    676.06007   -3968.1285    784.27688    14710.686   -19466.646    311.54415    843.20714    10884.769    1.0034285 
  355000     913.3505   -3371.2881    649.52469   -4020.8128    738.37788    14703.121   -19468.419    299.31603   -343.31934    10884.769    1.0034285 
  356000    916.23781   -3392.2805    645.63772   -4037.9183    737.23065    14691.712   -19468.907    297.52483   -608.71823    10884.769    1.0034285 
  357000    919.01459   -3337.8307    692.64707   -4030.4777    743.90558    14687.403   -19467.173    319.18783   -721.88046    10884.769    1.0034285 
  358000    921.79263   -3330.8845    671.31863   -4002.2031    717.85937    14743.704    -19467.13    309.35919   -713.34094    10884.769    1.0034285 
  359000    924.60886   -3392.9302    640.32862   -4033.2588    764.52877    14665.172   -19467.266    295.07827     248.1246    10884.769    1.0034285 
  360000    927.34903   -3334.0603    674.87211   -4008.9324    796.50889    14661.179   -19469.586    310.99672    868.62213    10884.769    1.0034285 
  361000    930.06551    -3332.083    671.57107   -4003.6541    731.51815    14726.784   -19467.072    309.47552   -803.45341    10884.769    1.0034285 
  362000    932.68228    -3359.671     657.4045   -4017.0755    751.46121    14697.273   -19468.767    302.94723   -363.87039    10884.769    1.0034285 
  363000     935.3987   -3344.3739     644.8906   -3989.2645    728.06905    14744.765   -19468.341    297.18054   -207.15018    10884.769    1.0034285 
  364000     938.1737   -3345.8852    673.19465   -4019.0799    758.08572    14688.042   -19469.122     310.2237    88.730912    10884.769    1.0034285 
  365000    940.72348   -3315.7164    624.25719   -3939.9736    726.13779    14794.491   -19467.389    287.67218   -353.59758    10884.769    1.0034285 
  366000    943.35306    -3334.444    627.34815   -3961.7922    822.83649    14674.691   -19465.597    289.09657    1569.2484    10884.769    1.0034285 
  367000     945.9278   -3362.0142    645.63179    -4007.646    778.59998    14676.741   -19469.513     297.5221    506.85865    10884.769    1.0034285 
  368000    948.09426   -3356.1226    666.10879   -4022.2313    713.74127    14730.252   -19470.757    306.95837   -823.95628    10884.769    1.0034285 
  369000    950.73666   -3403.3046    659.58019   -4062.8848     779.8463    14620.293   -19467.955    303.94984   -173.97719    10884.769    1.0034285 
  370000    953.32513   -3429.1792    621.44633   -4050.6256    720.94758    14690.781   -19468.249    286.37687   -1228.5468    10884.769    1.0034285 
  371000    955.94458   -3400.2182    633.60109   -4033.8193    761.31578    14665.325   -19467.303    291.97807   -272.93347    10884.769    1.0034285 
  372000     958.6208   -3377.9623    652.34454   -4030.3069    730.76526    14704.106    -19469.37    300.61549   -436.70634    10884.769    1.0034285 
  373000    961.32373   -3384.3293    641.79074   -4026.1201    725.43528    14711.149   -19468.274    295.75205   -1029.9787    10884.769    1.0034285 
  374000    964.04081   -3308.3544    651.64007   -3959.9945    700.68167    14801.262   -19467.011    300.29085   -843.60086    10884.769    1.0034285 
  375000    966.72907   -3406.1419    651.30327   -4057.4452    811.05201     14595.11   -19467.914    300.13565     553.0143    10884.769    1.0034285 
  376000    968.99146   -3372.0658    654.23463   -4026.3005    767.31511    14668.645   -19468.467    301.48649    209.70279    10884.769    1.0034285 
  377000    970.66492    -3410.267    618.16011   -4028.4271    702.14418    14729.874   -19466.427    284.86251     -1237.57    10884.769    1.0034285 
  378000    972.54562   -3411.6484    653.43573   -4065.0841     743.5389    14655.189    -19468.98    301.11833   -903.01481    10884.769    1.0034285 
  379000    975.25584   -3374.4265    661.49457    -4035.921     791.7827    14632.913   -19466.345    304.83203     659.3457    10884.769    1.0034285 
  380000    977.90688    -3361.602    668.62381   -4030.2258    750.63821    14678.773   -19466.353    308.11735     29.87369    10884.769    1.0034285 
  381000    980.58199   -3427.1163    632.10115   -4059.2175    731.32143     14673.92   -19467.368    291.28687    -1015.951    10884.769    1.0034285 
  382000    983.24932   -3407.2345     652.4791   -4059.7136    759.11685    14641.357   -19467.033    300.67749   -671.65593    10884.769    1.0034285 
  383000    986.04113   -3408.3286    666.85296   -4075.1816    776.32424    14613.499   -19468.499    307.30131   -73.958949    10884.769    1.0034285 
  384000    988.75861   -3359.8866    635.72516   -3995.6117    798.58426    14667.647   -19467.821    292.95689    983.50413    10884.769    1.0034285 
  385000    991.22446   -3353.4795    638.79672   -3992.2762    736.62296    14737.623    -19470.42    294.37234   -274.77882    10884.769    1.0034285 
  386000    992.87203   -3346.2443    672.88902   -4019.1334    759.42576    14682.359    -19466.91    310.08286   -368.60229    10884.769    1.0034285 
  387000    994.51655   -3352.8824    626.75695   -3979.6394      752.854    14728.283   -19466.411    288.82413    1.4391005    10884.769    1.0034285 
  388000    996.79768   -3344.6816    643.55332   -3988.2349    673.63689    14800.807   -19469.156    296.56429   -1359.1831    10884.769    1.0034285 
  389000     999.4092   -3361.4696    648.93001   -4010.3996    767.66223    14686.227   -19468.957    299.04199    63.159846    10884.769    1.0034285 
  390000    1001.9457   -3367.6668    659.63724    -4027.304    742.27847    14693.641   -19469.854    303.97613   -843.80314    10884.769    1.0034285 
  391000    1004.4523   -3370.3286    641.34052   -4011.6692    765.62811    14686.418   -19467.786    295.54458   -48.549432    10884.769    1.0034285 
  392000    1007.1426    -3401.703    637.24282   -4038.9458        773.1    14651.224   -19469.165    293.65626   -253.39055    10884.769    1.0034285 
  393000    1009.8635    -3467.583    641.83456   -4109.4176     760.5471    14593.099   -19468.446    295.77224   -817.85297    10884.769    1.0034285 
  394000    1012.6183   -3360.7766    647.87601   -4008.6526    738.05537    14715.236   -19467.358    298.55629   -281.66083    10884.769    1.0034285 
  395000    1015.4271    -3368.297    646.29159   -4014.5886    747.09846    14700.781   -19468.696    297.82615   -663.57643    10884.769    1.0034285 
  396000    1018.2666   -3398.3696    634.89164   -4033.2612    803.00342    14628.204   -19469.851    292.57279    793.51196    10884.769    1.0034285 
  397000    1020.9234   -3374.8009    635.84579   -4010.6467    732.63361    14717.488   -19467.682    293.01248   -147.47238    10884.769    1.0034285 
  398000    1023.6151   -3370.9394    648.01566    -4018.955      774.807    14672.938   -19471.192    298.62064    441.29338    10884.769    1.0034285 
  399000    1026.3801    -3332.699    668.81383   -4001.5128    704.72763    14757.001   -19468.119    308.20492   -1084.1645    10884.769    1.0034285 
  400000    1029.0555   -3376.3362    657.93325   -4034.2695    786.41524    14645.266   -19470.147     303.1909    544.13644    10884.769    1.0034285 
  401000    1031.7874   -3370.9799    638.07362   -4009.0535    736.35682    14716.958   -19468.269    294.03911   -367.65623    10884.769    1.0034285 
  402000    1034.4333   -3345.1544    697.33814   -4042.4925    769.68018     14652.68   -19468.771    321.34958    9.2288166    10884.769    1.0034285 
  403000     1037.018   -3349.4752    660.36144   -4009.8367     690.6913    14764.396   -19468.676    304.30986   -1670.3864    10884.769    1.0034285 
  404000    1039.6606   -3382.9118    660.89589   -4043.8076    825.90265    14587.886   -19463.895    304.55615    942.32665    10884.769    1.0034285 
  405000    1042.2796   -3397.3964    681.72998   -4079.1264    793.88223    14587.653   -19468.257    314.15698    415.67286    10884.769    1.0034285 
  406000    1044.9808   -3402.9431    648.36459   -4051.3077    766.88458    14643.987    -19467.57    298.78143   -162.44727    10884.769    1.0034285 
  407000    1047.6043   -3377.8779    662.47338   -4040.3513    748.55386    14674.534   -19467.112    305.28309   -491.98416    10884.769    1.0034285 
  408000    1050.2641   -3385.5847    609.26854   -3994.8532    738.63261    14725.279    -19466.19    280.76507   -573.30388    10884.769    1.0034285 
  409000    1052.9827   -3376.0052    651.35642   -4027.3616    750.60712    14684.359   -19468.109    300.16014   -213.35265    10884.769    1.0034285 
  410000     1055.657   -3419.0881    637.73756   -4056.8257    784.31504    14625.611    -19469.47    293.88425    185.56083    10884.769    1.0034285 
  411000    1058.2875    -3327.106    636.59227   -3963.6982    707.37434    14790.405   -19467.186    293.35648   -847.68147    10884.769    1.0034285 
  412000    1060.9539   -3382.3478    634.65562   -4017.0034    813.05516    14634.903   -19468.395    292.46402    717.61621    10884.769    1.0034285 
  413000     1063.586   -3425.3103    639.78338   -4065.0937    801.05636    14598.007   -19468.535    294.82701    395.75314    10884.769    1.0034285 
  414000    1065.9717   -3322.6101    702.16079   -4024.7709    753.61839    14683.978   -19468.983    323.57197    166.28603    10884.769    1.0034285 
  415000    1067.8797   -3354.1194    647.07601   -4001.1954    718.93319    14740.782    -19466.04    298.18763   -795.99231    10884.769    1.0034285 
  416000    1070.6077   -3391.8179    629.08712   -4020.9051    778.37411    14662.889   -19468.491    289.89793   -84.943012    10884.769    1.0034285 
  417000     1073.342   -3359.1581    681.19476   -4040.3529    702.03533    14720.619   -19467.898    313.91034    -1639.934    10884.769    1.0034285 
  418000    1076.1271   -3361.7629    672.17973   -4033.9427     800.9714    14625.716   -19468.025      309.756    1001.7583    10884.769    1.0034285 
  419000    1078.9016   -3422.0939    623.23598   -4045.3299    753.66053    14667.389   -19470.661    287.20159   -562.58027    10884.769    1.0034285 
  420000    1081.7531   -3398.6199    633.12967   -4031.7496    726.90592    14703.075   -19469.106    291.76083   -943.75969    10884.769    1.0034285 
  421000    1084.4733    -3385.261    638.07993    -4023.341     744.2368    14692.674   -19467.592    294.04203    -778.2825    10884.769    1.0034285 
  422000    1086.8092   -3341.8254    655.87413   -3997.6995    753.69612    14711.506   -19469.033    302.24201    126.80561    10884.769    1.0034285 
  423000    1089.4273   -3357.2203    633.02327   -3990.2435    731.31415    14739.149    -19465.74     291.7118    -358.6369    10884.769    1.0034285 
  424000    1092.0401   -3297.0268    630.59183   -3927.6186    731.42536    14802.617   -19468.369    290.59134    50.152368    10884.769    1.0034285 
  425000    1094.6111   -3394.7354    628.16828   -4022.9036    778.12189    14658.356   -19467.247     289.4745    63.028678    10884.769    1.0034285 
  426000    1097.2256   -3406.2071    639.29361   -4045.5007    851.67287    14563.764    -19465.89    294.60131    1683.5167    10884.769    1.0034285 
  427000    1099.8435   -3339.3744    666.67498   -4006.0494    772.76153    14683.558   -19469.281    307.21928    314.75512    10884.769    1.0034285 
  428000    1102.4937   -3304.4879    704.60776   -4009.0956    744.40078    14709.513   -19469.945    324.69959    -419.5764    10884.769    1.0034285 
  429000    1105.1978   -3367.4955    629.82415   -3997.3197    737.69623    14726.621   -19465.699    290.23757   -608.01844    10884.769    1.0034285 
  430000    1107.9776   -3359.7485    640.48499   -4000.2335    732.29285    14726.999   -19464.513    295.15033   -346.46851    10884.769    1.0034285 
  431000    1110.7142    -3347.104    644.73531   -3991.8393    713.68197    14753.969    -19466.15    297.10898   -293.93383    10884.769    1.0034285 
  432000    1113.3394   -3381.7603    627.72534   -4009.4856    772.22908    14681.906   -19469.528    289.27039    66.938654    10884.769    1.0034285 
  433000    1116.0902   -3288.8666    678.07131   -3966.9379     726.4096    14767.857    -19467.14    312.47098   -257.87815    10884.769    1.0034285 
  434000    1118.8714   -3291.5454     674.0904   -3965.6358    702.19642    14795.201   -19467.848    310.63648   -772.05848    10884.769    1.0034285 
  435000     1121.468   -3391.6417    632.62604   -4024.2677    738.25983    14699.554   -19466.935    291.52875   -384.71448    10884.769    1.0034285 
  436000    1124.0333   -3344.7129    646.74396   -3991.4568    771.38627    14700.271    -19468.64    298.03461    339.23376    10884.769    1.0034285 
  437000    1126.5789   -3302.6073    677.89365    -3980.501     759.4459    14722.343   -19467.612    312.38911    28.537371    10884.769    1.0034285 
  438000     1128.318   -3364.6718    641.55328   -4006.2251    740.91385    14715.521   -19468.002    295.64262   -380.48502    10884.769    1.0034285 
  439000    1130.0254   -3385.4502    642.70576    -4028.156    766.67713     14668.95   -19469.426    296.17371    24.277727    10884.769    1.0034285 
  440000    1131.7117   -3315.5933    659.40856   -3975.0018    707.82757    14781.992   -19468.232    303.87075   -533.76874    10884.769    1.0034285 
  441000    1133.4598   -3321.2249    675.81165   -3997.0366    674.39899    14791.898   -19468.547    311.42968   -1579.1482    10884.769    1.0034285 
  442000     1135.509   -3378.2788    629.00715    -4007.286    744.84214    14708.265   -19466.909    289.86108   -417.85758    10884.769    1.0034285 
  443000    1138.0897   -3347.3512    681.06795   -4028.4191    780.45036    14655.702   -19470.636     313.8519    466.29191    10884.769    1.0034285 
  444000    1140.6965   -3306.0196    667.77881   -3973.7984    768.43443     14720.54   -19467.031    307.72795    998.37763    10884.769    1.0034285 
  445000    1143.4137   -3359.4115    652.18607   -4011.5975    749.17517    14705.804   -19469.995    300.54246   -462.44282    10884.769    1.0034285 
  446000    1146.0882   -3400.6866    638.48296   -4039.1696    770.98213    14653.713   -19468.296    294.22775    14.127859    10884.769    1.0034285 
  447000    1148.7462    -3339.717     658.4156   -3998.1326    781.17553    14684.942   -19469.835    303.41317    546.85191    10884.769    1.0034285 
  448000    1151.4136   -3367.2848    672.00241   -4039.2872    751.24467    14673.694   -19469.197    309.67429   -174.54916    10884.769    1.0034285 
  449000    1154.0711   -3328.3729    659.83767   -3988.2105    732.17291    14741.557   -19466.596    304.06849    -494.0091    10884.769    1.0034285 
  450000    1156.6259   -3337.5255    661.94184   -3999.4673    784.51774    14679.254   -19468.465    305.03814    328.61382    10884.769    1.0034285 
  451000    1159.2697   -3330.7334    657.66586   -3988.3993    726.25777    14749.782   -19468.054    303.06767   -212.21189    10884.769    1.0034285 
  452000    1161.8783   -3384.5408    641.33226    -4025.873    809.35379    14628.311   -19467.923    295.54077    1242.1271    10884.769    1.0034285 
  453000     1163.603   -3323.9463    669.74389   -3993.6902    762.37286    14704.877   -19467.149    308.63351   -41.605907    10884.769    1.0034285 
  454000    1165.4117   -3388.3708    637.69506   -4026.0659    772.06516    14666.891   -19469.388    293.86467    58.308778    10884.769    1.0034285 
  455000    1167.9492   -3313.4345    668.98978   -3982.4243    741.69499    14739.311    -19469.65      308.286    10.924678    10884.769    1.0034285 
  456000    1170.4841    -3319.629    666.20391   -3985.8329    722.74186    14754.216   -19467.292     307.0022   -173.81431    10884.769    1.0034285 
  457000    1173.1046   -3347.2878    664.42517    -4011.713    796.36488    14654.165   -19466.099    306.18252    438.61125    10884.769    1.0034285 
  458000    1175.3881   -3325.9018    670.16178   -3996.0636    728.82016    14738.861    -19468.61    308.82609   -685.48207    10884.769    1.0034285 
  459000    1177.0786   -3381.1491    637.51258   -4018.6617    699.89732    14746.318   -19468.809    293.78058   -1074.0738    10884.769    1.0034285 
  460000    1178.8567   -3289.6056    677.13175   -3966.7373    724.44644    14771.754   -19467.269    312.03801   -213.65158    10884.769    1.0034285 
  461000    1180.5847    -3301.641    654.04799    -3955.689    816.06614    14694.221   -19468.178    301.40048    1463.8927    10884.769    1.0034285 
  462000    1183.2712   -3415.5731    612.23371   -4027.8068    714.47196    14720.075   -19465.776    282.13149   -1203.4166    10884.769    1.0034285 
  463000    1185.9343   -3353.9724    654.21985   -4008.1923    753.41299    14702.337   -19466.777    301.47968    -38.01484    10884.769    1.0034285 
  464000    1188.5947   -3367.9482    647.70878   -4015.6569    726.02045    14722.772   -19467.551    298.47922   -746.46033    10884.769    1.0034285 
  465000    1191.3234   -3375.9438    647.43884   -4023.3827     737.8556    14699.946   -19466.301    298.35483   -762.47592    10884.769    1.0034285 
  466000     1194.148   -3382.0565    633.88101   -4015.9375    728.14268    14719.033   -19467.501    292.10707   -815.52081    10884.769    1.0034285 
  467000    1196.9729   -3352.4659    660.95022   -4013.4161    720.84255     14731.47   -19468.821    304.58118   -675.61959    10884.769    1.0034285 
  468000    1199.7465   -3358.6234    652.51372   -4011.1371    726.76551    14723.721   -19468.476    300.69345    -596.5145    10884.769    1.0034285 
  469000    1202.4646   -3398.6766    639.12087   -4037.7975    761.92233    14665.696   -19467.917    294.52171   -114.65072    10884.769    1.0034285 
  470000    1205.1556   -3375.5333    653.08366    -4028.617    747.49005    14687.379   -19467.981    300.95609   -560.00991    10884.769    1.0034285 
  471000    1207.8286   -3373.3315    648.09883   -4021.4303    738.20986    14702.862   -19467.953    298.65897   -172.19402    10884.769    1.0034285 
  472000    1210.4971   -3332.1041    673.84369   -4005.9478    724.82747     14734.53   -19468.862    310.52279   -328.77865    10884.769    1.0034285 
  473000    1213.1828   -3330.0829    681.87274   -4011.9556    768.46848    14683.806   -19468.092    314.22276    123.72622    10884.769    1.0034285 
  474000    1215.8929    -3346.435    642.00938   -3988.4444    758.61878    14714.661   -19469.159    295.85281   -125.13242    10884.769    1.0034285 
  475000    1218.5329   -3443.8357    614.83964   -4058.6754    781.61539    14624.416   -19468.477    283.33236    -111.5801    10884.769    1.0034285 
  476000     1221.178   -3400.7974    638.63917   -4039.4366    784.79512    14641.855   -19469.076    294.29974    517.41905    10884.769    1.0034285 
  477000    1223.8523   -3320.0342    653.14369   -3973.1779    716.07877    14773.753   -19468.532    300.98376   -458.16557    10884.769    1.0034285 
  478000    1226.5547   -3399.4442    640.11785   -4039.5621    771.08147    14651.622   -19466.562    294.98115   -197.74698    10884.769    1.0034285 
  479000    1229.1658   -3326.6496    695.49682   -4022.1464    808.20733    14631.903   -19468.159    320.50106    634.31531    10884.769    1.0034285 
  480000    1231.8425   -3334.6791    658.32148   -3993.0006    773.22972    14697.373   -19468.715     303.3698    446.26474    10884.769    1.0034285 
  481000    1234.5644   -3359.0137    662.25789   -4021.2716    794.57799    14646.408   -19467.738    305.18379    886.12083    10884.769    1.0034285 
  482000    1237.2816   -3364.2843    619.48039   -3983.7646    731.30777    14748.159   -19468.063    285.47092   -620.63473    10884.769    1.0034285 
  483000    1239.8325   -3322.9451    661.28309   -3984.2282    742.40976    14734.131   -19466.312    304.73458   -222.24701    10884.769    1.0034285 
  484000    1242.6089   -3375.2908    645.07137   -4020.3622    744.66198    14697.014   -19468.175    297.26384   -136.11832    10884.769    1.0034285 
  485000    1245.3754   -3378.1938    652.70779   -4030.9016    771.21368    14662.803    -19468.64    300.78288    179.33884    10884.769    1.0034285 
  486000    1248.1668   -3353.6944    663.96968   -4017.6641    747.96436    14695.385   -19467.156    305.97262   -204.89716    10884.769    1.0034285 
  487000    1250.9451   -3378.5985    618.19475   -3996.7933    802.27888    14660.268    -19465.25    284.87847    758.55561    10884.769    1.0034285 
  488000    1253.8242   -3383.4314    628.64496   -4012.0763    695.60474     14755.36   -19468.271    289.69417   -1440.2954    10884.769    1.0034285 
  489000    1256.7123   -3353.4337    639.18453   -3992.6183    776.60327    14693.087   -19469.167    294.55105    679.63676    10884.769    1.0034285 
  490000    1259.5889   -3402.9615    644.52942   -4047.4909    791.04054    14624.437   -19466.425     297.0141    261.43904    10884.769    1.0034285 
  491000    1262.4351   -3365.8526    649.37639    -4015.229    759.05805    14688.834   -19468.725     299.2477   -246.75688    10884.769    1.0034285 
  492000    1265.3213   -3329.7038    665.28344   -3994.9872    756.07131    14712.004   -19468.819    306.57803   -27.238249    10884.769    1.0034285 
  493000    1268.1117   -3376.8648    643.42854   -4020.2933    794.79336    14647.846   -19467.803    296.50679     636.6427    10884.769    1.0034285 
  494000    1270.9762   -3365.5727    627.78783   -3993.3605    785.11016     14682.83   -19467.596    289.29919    657.20701    10884.769    1.0034285 
  495000    1273.8675   -3360.4436    651.89842    -4012.342    699.51635     14748.52   -19466.495    300.40991   -1445.6517    10884.769    1.0034285 
  496000    1276.7102   -3364.6024    643.94023   -4008.5427    754.26362    14697.764   -19467.441    296.74259   -122.47872    10884.769    1.0034285 
  497000    1279.5134   -3295.1345     653.2039   -3948.3384    799.24543    14711.358   -19465.575     301.0115     1418.332    10884.769    1.0034285 
  498000    1282.3841   -3367.7301    630.59081   -3998.3209    761.83084     14703.35   -19468.711    290.59086    99.969115    10884.769    1.0034285 
  499000    1285.1837   -3309.0757    652.60901   -3961.6847     760.3183    14738.726   -19467.155    300.73736    352.38315    10884.769    1.0034285 
  500000    1288.0731     -3360.42    669.85238   -4030.2724    780.88169    14655.258   -19469.761    308.68351    410.74767    10884.769    1.0034285 
Loop time of 1288.07 on 12 procs for 500000 steps with 1089 atoms

Performance: 33.538 ns/day, 0.716 hours/ns, 388.177 timesteps/s
92.8% CPU use with 12 MPI tasks x 1 OpenMP threads

MPI task timing breakdown:
Section |  min time  |  avg time  |  max time  |%varavg| %total
---------------------------------------------------------------
Pair    | 586.82     | 650.28     | 723.75     | 172.7 | 50.49
Bond    | 0.21603    | 0.47536    | 1.0816     |  38.6 |  0.04
Kspace  | 261.99     | 333.22     | 394.35     | 230.9 | 25.87
Neigh   | 52.434     | 52.566     | 52.723     |   1.3 |  4.08
Comm    | 134.36     | 137.58     | 140.67     |  18.6 | 10.68
Output  | 0.088694   | 0.094951   | 0.095607   |   0.6 |  0.01
Modify  | 91.711     | 92.795     | 93.695     |   7.3 |  7.20
Other   |            | 21.06      |            |       |  1.63

Nlocal:        90.7500 ave          99 max          84 min
Histogram: 2 1 2 0 0 3 2 0 1 1
Nghost:        3801.33 ave        3848 max        3759 min
Histogram: 1 1 2 2 1 0 1 3 0 1
Neighs:        32343.8 ave       35671 max       30135 min
Histogram: 3 1 2 1 0 1 2 0 1 1

Total # of neighbors = 388125
Ave neighs/atom = 356.40496
Ave special neighs/atom = 2.0495868
Neighbor list builds = 20690
Dangerous builds = 0

# write_restart restart.*.lmp
write_data data.*.lmp
System init for write_data ...
PPPM initialization ...
  using 12-bit tables for long-range coulomb (src/lammps/src/kspace.cpp:339)
  G vector (1/distance) = 0.26771633
  grid = 12 12 12
  stencil order = 5
  estimated absolute RMS force accuracy = 0.025848288
  estimated relative force accuracy = 7.7841351e-05
  using double precision FFTW3
  3d grid and FFT values/proc = 1859 144
Neighbor list info ...
  update every 1 steps, delay 10 steps, check yes
  max neighbors/atom: 2000, page size: 100000
  master list distance cutoff = 12
  ghost atom cutoff = 12
  binsize = 6, bins = 4 4 4
  3 neighbor lists, perpetual/occasional/extra = 3 0 0
  (1) pair lj/cut/coul/long, perpetual, skip from (3)
      attributes: half, newton on
      pair build: skip
      stencil: none
      bin: none
  (2) pair lj/cut/coul/long/soft, perpetual, skip from (3)
      attributes: half, newton on
      pair build: skip
      stencil: none
      bin: none
  (3) neighbor class addition, perpetual
      attributes: half, newton on
      pair build: half/bin/newton
      stencil: half/bin/3d/newton
      bin: standard
Total wall time: 0:30:56
