LAMMPS (24 Dec 2020)
OMP_NUM_THREADS environment is not set. Defaulting to 1 thread. (src/lammps/src/comm.cpp:94)
  using 1 OpenMP thread(s) per MPI task
# created by fftool

units real
boundary p p p

atom_style full
bond_style harmonic
angle_style harmonic
special_bonds lj/coul 0.0 0.0 0.5

read_data data.1.lmp
Reading data file ...
  orthogonal box = (-13.443762 -13.443762 -13.443762) to (13.443762 13.443762 13.443762)
  2 by 2 by 3 MPI processor grid
  reading atoms ...
  1089 atoms
  scanning bonds ...
  1 = max bonds/atom
  scanning angles ...
  28 = max angles/atom
  reading bonds ...
  728 bonds
  reading angles ...
  388 angles
Finding 1-2 1-3 1-4 neighbors ...
  special bond factors lj:    0        0        0.5     
  special bond factors coul:  0        0        0.5     
     8 = max # of 1-2 neighbors
     7 = max # of 1-3 neighbors
     7 = max # of 1-4 neighbors
     8 = max # of special neighbors
  special bonds CPU = 0.001 seconds
  read_data CPU = 0.014 seconds
# read_restart restart.*.lmp
# reset_timestep 0

pair_style hybrid lj/cut/coul/long 10.0 10.0 lj/cut/coul/long/soft 1 0.5 10.0 10.0 10.0
pair_modify tail yes
kspace_style pppm 1.0e-4

pair_coeff    1    1  lj/cut/coul/long    0.0660   3.5000  # CF-C CF-C
pair_coeff    1    2  lj/cut/coul/long    0.0445   2.9580  # CF-C HD-
pair_coeff    1    3  lj/cut/coul/long    0.0591   3.2133  # CF-C F-D
pair_coeff    1    4  lj/cut/coul/long    0.0000   1.8708  # CF-C Hw
pair_coeff    1    5  lj/cut/coul/long    0.1013   3.3286  # CF-C Ow
pair_coeff    2    2  lj/cut/coul/long    0.0300   2.5000  # HD- HD-
pair_coeff    2    3  lj/cut/coul/long    0.0399   2.7157  # HD- F-D
pair_coeff    2    4  lj/cut/coul/long/soft    0.0000   1.5811  0.0  # HD- Hw
pair_coeff    2    5  lj/cut/coul/long/soft    0.0683   2.8131  0.0  # HD- Ow
pair_coeff    3    3  lj/cut/coul/long    0.0530   2.9500  # F-D F-D
pair_coeff    3    4  lj/cut/coul/long/soft    0.0000   1.7176  1.0  # F-D Hw
pair_coeff    3    5  lj/cut/coul/long/soft    0.0908   3.0559  1.0  # F-D Ow
pair_coeff    4    4  lj/cut/coul/long    0.0000   1.0000  # Hw Hw
pair_coeff    4    5  lj/cut/coul/long    0.0000   1.7792  # Hw Ow
pair_coeff    5    5  lj/cut/coul/long    0.1554   3.1655  # Ow Ow

variable TK equal 300.0
variable PBAR equal 1.0

neighbor 2.0 bin

timestep 1.0

velocity all create ${TK} 12345
velocity all create 300 12345

fix SHAKE all shake 0.0001 20 0 b 3 a 4
       0 = # of size 2 clusters
       0 = # of size 3 clusters
       0 = # of size 4 clusters
     360 = # of frozen angles
  find clusters CPU = 0.001 seconds

fix NPT all npt temp ${TK} ${TK} 100 iso ${PBAR} ${PBAR} 500
fix NPT all npt temp 300 ${TK} 100 iso ${PBAR} ${PBAR} 500
fix NPT all npt temp 300 300 100 iso ${PBAR} ${PBAR} 500
fix NPT all npt temp 300 300 100 iso 1 ${PBAR} 500
fix NPT all npt temp 300 300 100 iso 1 1 500

thermo_style custom step cpu etotal ke pe evdwl ecoul elong temp press vol density
thermo 1000

run 200000
PPPM initialization ...
  using 12-bit tables for long-range coulomb (src/lammps/src/kspace.cpp:339)
  G vector (1/distance) = 0.27021277
  grid = 15 15 15
  stencil order = 5
  estimated absolute RMS force accuracy = 0.016919794
  estimated relative force accuracy = 5.0953457e-05
  using double precision FFTW3
  3d grid and FFT values/proc = 2352 450
Neighbor list info ...
  update every 1 steps, delay 10 steps, check yes
  max neighbors/atom: 2000, page size: 100000
  master list distance cutoff = 12
  ghost atom cutoff = 12
  binsize = 6, bins = 5 5 5
  3 neighbor lists, perpetual/occasional/extra = 3 0 0
  (1) pair lj/cut/coul/long, perpetual, skip from (3)
      attributes: half, newton on
      pair build: skip
      stencil: none
      bin: none
  (2) pair lj/cut/coul/long/soft, perpetual, skip from (3)
      attributes: half, newton on
      pair build: skip
      stencil: none
      bin: none
  (3) neighbor class addition, perpetual
      attributes: half, newton on
      pair build: half/bin/newton
      stencil: half/bin/3d/newton
      bin: standard
Per MPI rank memory allocation (min/avg/max) = 16.37 | 16.38 | 16.39 Mbytes
Step CPU TotEng KinEng PotEng E_vdwl E_coul E_long Temp Press Volume Density 
       0            0    796.45148     972.9364   -176.48492   -201.60386    19459.424   -19434.493    448.35165    1111.1116    19438.038   0.56189244 
    1000    2.1178791    -3137.174    617.28966   -3754.4636    775.70717    15120.529   -19651.539    284.46138    234.96113    13590.248    0.8036709 
    2000    4.2998645   -3276.4234    641.32256   -3917.7459    751.03162    14987.012   -19657.347    295.53631    74.246561    11384.231   0.95940486 
    3000     7.006056   -3344.7647    655.67451   -4000.4393    722.61082    14934.713   -19658.889    302.15002   -668.98748    11199.256   0.97525111 
    4000     10.02948   -3329.3372    669.38236   -3998.7196    766.90691    14892.648   -19659.221    308.46691    68.476393    11084.228   0.98537187 
    5000    12.984913   -3284.8346    666.24224   -3951.0768    733.71768     14973.11   -19659.051    307.01987   -210.71817     11079.93    0.9857541 
    6000    16.029939   -3332.7706    677.96139    -4010.732    776.73605    14869.568   -19658.321    312.42032   -28.984996    11188.825    0.9761603 
    7000    19.136439   -3385.9008    636.92323    -4022.824    822.09215    14809.969   -19655.868    293.50899     1315.174    10872.656    1.0045463 
    8000    22.173472   -3432.7582    652.13946   -4084.8977    792.90184     14784.77   -19663.308    300.52098    171.74504    10831.335    1.0083786 
    9000    25.209932   -3372.9394    642.79844   -4015.7378     763.7926    14877.365   -19657.892    296.21642    11.438126    11015.783   0.99149436 
   10000    28.247756     -3360.95    640.53103    -4001.481    743.68857    14914.633   -19660.894    295.17155   -528.65739    11106.753   0.98337356 
   11000    30.860672   -3374.6046    640.08549   -4014.6901    771.61231    14872.599   -19660.053    294.96623    564.27238     10727.24    1.0181638 
   12000    33.052395   -3311.3632    660.50157   -3971.8648    731.94432     14956.66   -19661.422    304.37444    313.33466    10696.648    1.0210757 
   13000    35.970903   -3381.3113    630.21256   -4011.5238    777.09053    14871.001   -19660.806    290.41656    459.90117    10755.303    1.0155071 
   14000    38.723028   -3387.9258     655.6625   -4043.5883    787.87261    14826.636   -19660.279    302.14448    426.93604    10896.563    1.0023424 
   15000    40.893905   -3361.1521     639.7612   -4000.9133    758.28261    14898.477   -19660.825    294.81679    521.84404    10657.942    1.0247838 
   16000    43.856431   -3389.8388    648.73303   -4038.5718    784.89421    14837.725   -19663.587    298.95122    412.49791    10870.751    1.0047224 
   17000     46.91645   -3285.5184    682.68662    -3968.205    741.24607    14949.552   -19660.579    314.59782   -63.901957    10925.109    0.9997234 
   18000    49.882524   -3365.6832    637.27623   -4002.9594    791.30655     14863.23   -19659.828    293.67166     538.9356    10937.273   0.99861148 
   19000    52.815576   -3366.8362    657.17381     -4024.01    694.04208    14939.215   -19658.372    302.84093   -1442.5502    11094.009   0.98450314 
   20000    55.389913   -3308.9271    649.27421   -3958.2013    775.93001    14922.481   -19659.267    299.20061    421.60633    11169.626   0.97783819 
   21000    58.448587   -3302.9713    641.44437   -3944.4157    731.65794    14982.087   -19659.037    295.59244    251.20854    10751.099    1.0159042 
   22000    61.115549   -3346.4921    641.46103   -3987.9531    753.77802    14916.096   -19660.744    295.60011    195.02526        10960   0.99654075 
   23000    63.986095   -3422.1086    620.26433   -4042.3729    719.41672     14895.98    -19661.32    285.83218   -1036.0805    10978.961   0.99481974 
   24000    66.868286   -3396.7679    637.73877   -4034.5067    745.48672     14877.62    -19660.48    293.88481   -809.38908    10989.643   0.99385275 
   25000    69.797902   -3378.7951     650.6991   -4029.4942    729.11489    14897.401   -19659.346    299.85723   -532.89655    10883.067    1.0035854 
   26000    72.764559   -3351.6229    652.65669   -4004.2796    754.53302      14898.1    -19660.62    300.75933    157.46894    10749.611    1.0160449 
   27000    75.485748   -3400.3587    650.92745   -4051.2861    711.19845    14895.279   -19659.918    299.96246    -922.0713    10696.232    1.0211154 
   28000    78.462542   -3356.5518    635.11283   -3991.6647    702.75571    14964.179   -19660.204    292.67471   -973.07424    10904.906    1.0015755 
   29000    81.366015    -3307.582    666.28725   -3973.8692    731.92317    14949.657    -19660.65    307.04061    -863.1943    11225.601   0.97296234 
   30000    84.082358   -3368.8316    643.31549   -4012.1471    802.01738    14843.665   -19661.651    296.45469    957.26649    10894.386    1.0025427 
   31000    87.190999    -3355.936    671.05142   -4026.9874    694.84192    14934.614   -19660.355    309.23605   -1301.8085    10922.006    1.0000074 
   32000    90.239238   -3345.4858    643.00118    -3988.487    778.89782    14889.278   -19660.588    296.30985    305.63786    11032.199   0.99001903 
   33000    93.226909   -3419.9279    632.32372   -4052.2516    756.57014    14848.636    -19660.89    291.38943   -76.447605     10879.01    1.0039596 
   34000     96.33186   -3420.1024    623.14171   -4043.2441    751.20343    14862.222   -19660.979    287.15815     -148.789    10614.673    1.0289613 
   35000    99.443988   -3353.8647    632.01734    -3985.882    780.36142    14889.507    -19659.01    291.24824    678.64872    10870.554    1.0047406 
   36000    102.51277   -3370.0618    643.51208   -4013.5739    712.54896    14932.507   -19661.648    296.54529   -411.21947    10611.433    1.0292754 
   37000    105.59828   -3318.6433    671.86768    -3990.511    760.44583    14905.105   -19658.819     309.6122    196.83869    10834.069    1.0081241 
   38000    108.65175   -3439.7997    617.00503   -4056.8047    773.64719    14825.726   -19658.711    284.33022     105.3722      10804.5    1.0108832 
   39000    111.02193   -3386.6339    619.69162   -4006.3255      735.039    14915.866   -19659.301    285.56827   -446.75015    10943.426   0.99805009 
   40000    112.98373   -3338.6751    635.35829   -3974.0334    751.24796    14932.847   -19661.768    292.78783   -121.74161    10929.734   0.99930036 
   41000    115.30444   -3392.8122     614.8572   -4007.6694    782.56019    14864.231   -19659.035    283.34045    109.96354    10991.424   0.99369166 
   42000    118.15943   -3308.2678    662.12443   -3970.3922    758.45574    14929.768   -19660.036    305.12229    713.21311    10815.234    1.0098798 
   43000    120.79268   -3355.3102    663.85047   -4019.1607     723.0514    14914.088   -19660.209    305.91769   -556.96188    10852.855    1.0063791 
   44000    123.36549   -3356.5852     635.2663   -3991.8515    754.13718    14908.356   -19659.548    292.74544    30.252306    10880.608    1.0038122 
   45000    126.20012   -3426.3463    653.50487   -4079.8511    790.29635    14786.089   -19660.139    301.15019    148.55058    10936.139   0.99871511 
   46000    128.97374   -3358.9948     662.1605   -4021.1553    822.98948    14814.483   -19662.356    305.13891    1349.0304    10891.638    1.0027956 
   47000     131.6911    -3378.361    640.67429   -4019.0353    730.44178    14904.995   -19657.818    295.23757   -770.15494     10973.41   0.99532297 
   48000    134.63109   -3363.4208    644.52315   -4007.9439    776.53018     14865.65   -19654.803    297.01121    305.34819     10913.83    1.0007566 
   49000    137.71877   -3344.4615    657.51347    -4001.975    709.17096    14942.387   -19658.102    302.99745    -919.6298    11243.786   0.97138872 
   50000     140.7368   -3306.6349    669.53942   -3976.1743    752.62992    14925.712   -19656.494    308.53929    104.49198    11033.542    0.9898985 
   51000    143.73874   -3392.0071    639.56133   -4031.5684    745.50903    14882.159   -19662.125    294.72469   -265.30701    10700.343     1.020723 
   52000    146.56798   -3373.4189    669.84157   -4043.2605    725.93743    14888.295   -19661.363    308.67852   -917.92603    10999.903   0.99292576 
   53000    149.55431   -3377.7021    642.32073   -4020.0228    737.30969    14901.838    -19661.96    295.99628   -263.96717    10818.735     1.009553 
   54000    152.64117   -3412.5078    617.74315   -4030.2509    745.34154    14882.297   -19660.095    284.67036   -446.20999    10765.806    1.0145164 
   55000    155.71151   -3352.7615    622.65814   -3975.4196    717.04474    14965.397   -19659.572     286.9353   -179.10108    10813.642    1.0100285 
   56000     158.7384   -3343.8978    643.21129    -3987.109    730.66799    14938.507   -19661.471    296.40667   -145.08058    10838.232    1.0077369 
   57000    160.87305    -3295.437     708.4704   -4003.9074     761.2564    14889.628   -19656.979    326.47958   -294.25895    11176.799    0.9772106 
   58000     163.5422   -3394.2471    655.27691    -4049.524    704.24611    14905.439   -19660.595    301.96679   -917.06631    10740.251    1.0169303 
   59000    166.34066   -3302.8206    672.33898   -3975.1595    757.72324     14922.73   -19658.448    309.82939    854.45339    10575.151    1.0328067 
   60000    169.48977   -3341.0939     662.1191    -4003.213     766.3794    14890.225   -19662.226    305.11983   -136.18004    10977.619   0.99494137 
   61000    172.58247   -3323.4989      656.215   -3979.7139    735.32243     14938.56   -19656.229    302.39909   -285.59711    10946.011   0.99781434 
   62000    175.67488   -3393.8797    637.22448   -4031.1042    788.64265    14836.228   -19657.771    293.64781    410.69713    10904.798    1.0015855 
   63000    178.78131   -3368.1252    623.65859   -3991.7838    755.12112    14908.671   -19657.575    287.39634   -167.31766    11063.632   0.98720622 
   64000    181.95298   -3346.6346    663.67839    -4010.313    749.07041    14895.147   -19657.919    305.83839   -26.482046    10976.734   0.99502152 
   65000    185.02987   -3308.8676    652.86466   -3961.7322    749.90861    14947.123   -19660.254    300.85517    136.75536    11086.941   0.98513082 
   66000    188.06708   -3298.4838    654.23713   -3952.7209    736.72641    14965.464   -19659.748    301.48763   -130.65309    10997.362    0.9931552 
   67000    190.85832   -3333.1479    674.93693   -4008.0849    702.12741    14947.279   -19661.338    311.02659   -1078.8851    11050.457   0.98838329 
   68000    192.76139   -3278.0242    668.63576     -3946.66    688.83538    15019.323    -19658.79    308.12286    -831.5252     11079.96    0.9857515 
   69000    195.00463   -3316.8045    648.51037   -3965.3149    701.22978    14992.019   -19661.247    298.84861   -1072.5124    11208.403   0.97445521 
   70000    197.88957   -3349.0176    670.22471   -4019.2424    750.02725     14886.77   -19658.826    308.85508   -16.730915    10940.653   0.99830305 
   71000    199.82707   -3371.1933     639.5987    -4010.792    775.22378     14868.66   -19658.897    294.74191    694.31109    10718.745    1.0189707 
   72000    202.33645   -3355.7001    641.65852   -3997.3586    739.74012    14917.846   -19658.191    295.69112   -268.62285    10755.576    1.0154814 
   73000    205.17044    -3376.499    633.34827   -4009.8473    728.45963    14919.091   -19660.755    291.86157   -1056.8005    11043.623   0.98899494 
   74000    207.88122    -3386.081    644.38668   -4030.4677    749.61041    14877.149   -19661.706    296.94832   -191.36624    10937.661   0.99857607 
   75000    210.72045   -3358.8629    640.51413    -3999.377    789.26274    14864.461   -19658.184    295.16376    505.51476    10826.242     1.008853 
   76000    213.67789   -3388.8683    654.12881   -4042.9971    804.39569    14804.781   -19657.153    301.43772    1297.3519    10529.123    1.0373216 
   77000    216.79663   -3357.1653    669.61102   -4026.7764     759.9809    14870.965   -19662.538    308.57228     317.9752    10728.406    1.0180531 
   78000    219.87387   -3381.1822    630.48763   -4011.6698    733.10358    14913.112   -19659.789    290.54331   -684.10012    10981.061   0.99462945 
   79000    222.90491   -3326.1204    663.99093   -3990.1113    732.60198    14935.007   -19660.353    305.98241    -135.8725    10981.954    0.9945486 
   80000    225.96147   -3379.6217    656.04765   -4035.6693    751.71458    14869.506   -19662.118    302.32196    56.565926     10661.81     1.024412 
   81000    229.10066   -3357.5334    641.77888   -3999.3123    739.88923    14916.649   -19661.458    295.74659   -653.71401     10912.05    1.0009198 
   82000    232.14074   -3334.4311    657.29638   -3991.7275    747.59119    14918.339   -19661.799    302.89741    251.73339    10870.103    1.0047823 
   83000    235.23213   -3417.3168    628.27286   -4045.5897    719.93427    14889.812   -19657.317     289.5227   -996.00116    10944.185   0.99798083 
   84000    238.31303   -3394.3696    649.15959   -4043.5291    763.98012    14847.394   -19657.368    299.14779   -454.13625    11085.054   0.98529844 
   85000    241.37181   -3324.7667     690.5945   -4015.3612    793.73448    14844.258   -19657.275    318.24195     976.7504    10806.249    1.0107195 
   86000    244.44614   -3381.9285    663.55685   -4045.4854    796.69708    14815.479   -19659.947    305.78238    1000.4997    10779.733    1.0132057 
   87000    246.83979   -3378.8578    675.88866   -4054.7465    755.04157    14847.331   -19660.783    311.46516   -516.90953    10896.479    1.0023501 
   88000    249.12724   -3346.2594    664.68172   -4010.9411    797.70685    14850.756   -19662.047    306.30075    661.14928    10980.764   0.99465633 
   89000      251.624   -3324.8167    658.82016   -3983.6368    682.94666    14992.076   -19660.096     303.5996   -941.73884    10829.559     1.008544 
   90000    254.09263    -3323.619    653.91771   -3977.5367    718.47403    14963.289   -19661.073    301.34044   -784.33167    11149.975   0.97956151 
   91000    257.11595   -3360.1679    635.52364   -3995.6916    762.08329    14896.628   -19658.028    292.86403    -203.5482    11141.502   0.98030647 
   92000    260.11259    -3333.994    666.22741   -4000.2214    780.85767    14874.475   -19658.425    307.01304    267.99257    11205.853   0.97467696 
   93000    263.16704   -3330.4971    651.12942   -3981.6265    733.87532    14940.996     -19659.1    300.05553   -526.24523    11044.333   0.98893131 
   94000    265.31599   -3354.5817    664.39741   -4018.9791    754.99855    14882.393   -19659.307    306.16973   -780.32893    11367.948   0.96077912 
   95000    267.65193   -3312.1413    655.16877   -3967.3101    716.81709    14972.147   -19659.775    301.91696   -492.99968    10918.007    1.0003736 
   96000    270.66601   -3334.6146    665.03826   -3999.6528     782.1841    14873.628   -19657.366    306.46505    866.90593    10819.828    1.0094511 
   97000    273.68623   -3360.8095    640.85175   -4001.6612    762.98405    14892.357    -19659.69    295.31934    170.74108    10794.795    1.0117919 
   98000    276.72169   -3317.8301     656.1979    -3974.028    784.12965    14901.217   -19661.303     302.3912    502.89547    11074.333   0.98625233 
   99000    279.75079   -3365.3336    620.04757   -3985.3812    725.83981    14947.068   -19660.647    285.73229    -599.5875    11059.812   0.98754724 
  100000    282.87128   -3424.2223    625.13175    -4049.354    784.54333    14823.791    -19659.33     288.0752     236.8686    10730.603    1.0178446 
  101000    285.88363   -3384.9158    635.04518    -4019.961    718.59682    14919.391   -19660.143    292.64354   -585.17723     10704.74    1.0203038 
  102000    288.81563     -3389.21    642.27452   -4031.4845    756.97025    14870.747     -19661.6    295.97499   -71.057469    10883.364     1.003558 
  103000    291.91444   -3382.5023    653.83898   -4036.3412    805.70766    14815.581   -19661.431    301.30416    1269.1149    10581.745    1.0321631 
  104000    295.04233   -3394.9283    648.60109   -4043.5294    753.89542    14861.136   -19661.466    298.89042    304.11019     10611.67    1.0292524 
  105000    298.08057    -3359.698    662.48213   -4022.1802    728.98523    14905.232   -19660.332    305.28712   -465.30457    10748.747    1.0161266 
  106000    301.14341   -3354.9197    647.65812   -4002.5778    805.62025    14847.558   -19658.489    298.45588      1173.77    10893.186    1.0026531 
  107000    304.22724   -3320.6917      684.932   -4005.6237    725.70763    14926.639   -19660.362    315.63254   -482.72539    10946.895   0.99773376 
  108000    307.35086   -3392.2613    651.11147   -4043.3728    805.84675    14805.912   -19657.462    300.04726     809.6814     10823.66    1.0090936 
  109000    310.36709   -3344.4238    651.61485   -3996.0386    739.02643    14919.441   -19658.097    300.27923   -436.46078    10972.534   0.99540243 
  110000    313.41225   -3347.1202    649.42072   -3996.5409    770.11624     14887.39   -19658.593    299.26812     330.9828     10922.97   0.99991918 
  111000    316.44194   -3353.7911    667.73954   -4021.5306    672.89881    14963.638   -19661.828    307.70986   -1882.6261    11055.042   0.98797331 
  112000    319.53953   -3350.3916    647.27266   -3997.6642    756.63903    14901.965   -19659.112    298.27825   -238.23736    11055.706   0.98791398 
  113000    322.62885   -3309.2625    650.72133   -3959.9838    710.21281     14984.97   -19658.662    299.86747    -158.9845    10840.924    1.0074867 
  114000    325.71347   -3384.6902    630.89701   -4015.5872     762.8435    14879.769   -19659.874    290.73197    111.63981    10913.585     1.000779 
  115000    328.73526   -3287.8822    694.22546   -3982.1077    716.31133    14956.653    -19657.98    319.91518   -1156.6803    11286.825   0.96768463 
  116000    331.53563    -3315.983    656.47561   -3972.4586    795.74337     14890.57   -19661.354    302.51918    753.65832    11018.041   0.99129117 
  117000     334.4488    -3348.667    625.25174   -3973.9187    790.55913    14892.915   -19661.033    288.13049    566.42984    11065.292   0.98705817 
  118000     337.4592   -3366.9224    635.82586   -4002.7482    755.38856    14899.869   -19662.229    293.00329   -198.51408    10911.276    1.0009907 
  119000    340.35852   -3305.0654    660.63677   -3965.7021    711.52258    14979.052   -19658.369    304.43674   -86.614123    10743.749    1.0165993 
  120000    343.23717   -3417.3375    622.00605   -4039.3435    727.77649    14893.102   -19663.165    286.63481   -293.14217    10654.377    1.0251268 
  121000    346.01542    -3357.918    674.81593   -4032.7339    727.11428    14898.167   -19660.766    310.97082   -633.79575     10835.61    1.0079808 
  122000    348.93624   -3360.3317    665.07838   -4025.4101    759.26263    14874.623   -19662.174    306.48354    151.45003     10693.31    1.0213944 
  123000    351.99912   -3412.0181    640.67875   -4052.6968    766.08001     14839.24   -19660.259    295.23962    205.95885    10702.635    1.0205044 
  124000    355.04022   -3278.8311    635.89219   -3914.7233    671.15345    15070.182   -19658.449    293.03386   -1183.6781    11054.982   0.98797871 
  125000    358.16591   -3386.4029    640.18891   -4026.5918    784.78353    14843.728   -19659.099    295.01389    325.74695    10893.562    1.0026185 
  126000    361.15058   -3433.9016    622.38584   -4056.2875    727.37366    14876.347   -19663.451    286.80982   -1038.9896     10946.28   0.99778985 
  127000    364.11465   -3349.3076     655.0774    -4004.385    763.37375     14883.51   -19656.035    301.87485    -218.4718    11085.104   0.98529401 
  128000    367.05631   -3339.0931    626.19766   -3965.2907    720.96067    14969.801   -19659.646     288.5664   -859.58403    11164.212   0.97831242 
  129000    369.82577   -3346.5322    680.51576    -4027.048    771.13094    14859.986   -19661.265    313.59744      324.004    10891.283    1.0028283 
  130000    372.57168   -3439.7255     635.6154   -4075.3409    805.01634    14776.315   -19661.649    292.90631   -115.49488    10939.054   0.99844891 
  131000    375.32325   -3307.7761    691.75317   -3999.5293    755.30916    14905.425   -19663.215     318.7759    81.880397    10887.391    1.0031868 
  132000    378.09982   -3388.2977    654.22524   -4042.5229    747.15553     14867.45    -19660.76    301.48216    190.52151     10651.19    1.0254334 
  133000    380.94449     -3384.94    654.35668   -4039.2967     748.8742    14870.882   -19661.092    301.54273   -541.01657    10844.487    1.0071557 
  134000     383.7839   -3407.6402    624.84343   -4032.4836    774.97903    14849.539   -19661.683    287.94234    133.81081    10844.896    1.0071177 
  135000    386.61704   -3359.6634    670.10754    -4029.771    756.31413    14870.242   -19659.474    308.80109    63.113655    10821.315    1.0093123 
  136000    389.46211    -3382.261    630.92636   -4013.1873    734.67421     14905.21   -19659.114    290.74549   -1083.8007    11063.719   0.98719851 
  137000    392.24723   -3365.9813    634.50886   -4000.4901    741.17998    14915.079   -19659.506    292.39639   -187.81356    10923.406   0.99987926 
  138000    395.03504   -3353.7085    646.75511   -4000.4636    815.12165    14837.948   -19657.096    298.03975    1649.4459    10668.284    1.0237904 
  139000    397.89795   -3380.2196     634.4666   -4014.6862    742.16735     14900.35   -19660.374    292.37692   -319.39752     10786.89    1.0125335 
  140000    400.66819   -3330.5989     657.0196   -3987.6185    752.66316    14914.623   -19659.716    302.76986   -318.68873    11131.675   0.98117194 
  141000    403.54006   -3367.4498    603.19547   -3970.6452     824.1362     14862.08   -19660.738    277.96646    1438.5379    11070.588   0.98658599 
  142000    406.35918   -3330.7577    668.74521   -3999.5029    664.85502    14989.466   -19657.795     308.1733   -1862.2996    11088.891   0.98495754 
  143000    409.19765   -3381.7701    608.32915   -3990.0993    723.50214    14945.969    -19662.92    280.33218   -633.19689    10906.717    1.0014092 
  144000    412.07612   -3410.3169    628.35826   -4038.6751    757.63746    14855.963   -19657.484    289.56205   -187.13502     10826.37    1.0088411 
  145000    414.91289   -3365.3473    647.06629   -4012.4136     742.0013    14903.442   -19661.697    298.18315   -421.16208    10987.066   0.99408582 
  146000    417.77049   -3376.8539    654.17852   -4031.0324    715.49185    14910.393   -19661.789    301.46063   -852.17172    10701.136    1.0206474 
  147000    420.69489   -3257.5396    700.88336    -3958.423    732.69568    14967.053   -19661.415     322.9833    307.93031    10890.859    1.0028674 
  148000     423.5606   -3370.6566    640.17598   -4010.8326    741.48808    14901.667    -19659.35    295.00793   -431.04255     10981.29   0.99460872 
  149000    426.41536   -3417.4353    636.74525   -4054.1806    762.29561    14838.793   -19659.835    293.42697    170.63908    10545.441    1.0357165 
  150000    429.22737   -3374.4532     645.7685   -4020.2217    740.60439    14897.529   -19661.726    297.58509   -284.00874      10834.9    1.0080469 
  151000    432.06296    -3342.683    650.39477   -3993.0778    741.32188    14921.249   -19659.531    299.71699    265.34275    10596.239    1.0307513 
  152000    434.70681   -3339.9678     666.9058   -4006.8736    781.55709    14865.062   -19658.412    307.32565    304.09161    10927.201     0.999532 
  153000    437.64467   -3392.5258    654.42152   -4046.9474     755.1475    14853.388   -19658.578    301.57261   -139.79905    10815.536    1.0098517 
  154000    440.59104   -3379.9628    643.77563   -4023.7385    810.93581    14822.067   -19661.222    296.66673    951.32837    10934.923   0.99882612 
  155000    443.79125    -3387.157     653.5319   -4040.6889    719.87271    14896.957   -19660.533    301.16265   -1187.5171    11026.766   0.99050682 
  156000    446.90223   -3337.9608    646.62242   -3984.5832     745.0894    14927.653   -19659.671     297.9786   -157.20261    10938.792   0.99847283 
  157000    450.17421   -3355.7815    643.98662   -3999.7681    814.39316    14841.752   -19660.628    296.76397    1175.8758    10966.876   0.99591594 
  158000    453.38203   -3278.6076    662.68104   -3941.2886    771.39393    14943.059   -19659.158    305.37879     646.7184    10928.917   0.99937501 
  159000    456.53875   -3322.9035     673.4448   -3996.3483    816.50684     14843.74   -19660.696    310.33897    1420.1814     10690.96    1.0216189 
  160000    459.14736   -3359.5945    662.50336   -4022.0979    753.49747    14881.129   -19662.166     305.2969    403.42443    10654.995    1.0250673 
  161000    462.02353   -3340.2143    660.52013   -4000.7344    833.29527    14821.175   -19658.452    304.38299    1690.2541    10765.107    1.0145823 
  162000    464.78063   -3315.1616    638.18042    -3953.342    733.51367    14969.511   -19659.934    294.08833   -11.410296    10762.789    1.0148008 
  163000    467.72185   -3414.8517    660.56527    -4075.417    784.94697    14796.249   -19660.745    304.40379    717.17786    10607.408    1.0296659 
  164000    470.86361   -3392.5227    635.49213   -4028.0149    744.10606    14885.663   -19659.894    292.84951   -484.79847    10822.346    1.0092161 
  165000    473.97945   -3370.5939    635.64081   -4006.2347    735.69635    14914.837   -19659.221    292.91802   -366.20675    10732.848    1.0176318 
  166000    477.00901   -3351.9259    662.73663   -4014.6625    754.47609    14887.005    -19659.53     305.4044    347.92099     10812.13    1.0101698 
  167000    479.92829   -3324.8585     682.5223   -4007.3808    741.55118    14906.258    -19658.32     314.5221   -312.59063    10986.888     0.994102 
  168000    483.03934   -3385.9671    608.49721   -3994.4643    799.73792    14864.419   -19661.057    280.40962    996.09172    10734.734     1.017453 
  169000    486.10721   -3363.1368    666.31755   -4029.4543    798.24615    14831.781   -19662.556    307.05458    1171.7075    10751.753    1.0158424 
  170000    489.16761   -3340.8253    654.42857   -3995.2538    695.60616    14966.164   -19660.825    301.57586   -1081.5065    10991.874   0.99365107 
  171000    492.18751   -3369.9132    647.91166   -4017.8249    779.49077    14860.846   -19663.261    298.57271     439.1861    10681.767    1.0224981 
  172000    495.23199   -3279.0991    675.98169   -3955.0807    808.81599    14890.264   -19657.617    311.50804    2078.4207    10692.897    1.0214338 
  173000    498.22219   -3346.3465    634.06962   -3980.4161    706.77967    14969.535   -19661.012    292.19398   -500.64414    10818.755    1.0095511 
  174000    501.25773   -3319.4978    675.05736   -3994.5551    752.95312    14909.169   -19659.612    311.08208   -164.78094    11020.702   0.99105181 
  175000    504.24479   -3419.6514    623.99952   -4043.6509    719.50252     14892.82   -19659.434    287.55345   -1023.3189    10899.184    1.0021013 
  176000    507.26801   -3365.6575    658.97556   -4024.6331    779.26542     14853.65   -19661.063    303.67121    452.22531    10739.576    1.0169943 
  177000    510.34611   -3376.2528    638.11848   -4014.3713    731.62896    14909.638   -19659.342    294.05979   -880.97848    10990.902   0.99373891 
  178000    513.42892   -3400.8487    673.42455   -4074.2732    832.06208    14749.718   -19659.167    310.32964    1337.4358    10743.509    1.0166219 
  179000    516.52946   -3316.1651    661.15445   -3977.3195    781.57106    14898.739   -19661.801     304.6753    989.22559    10953.456   0.99713614 
  180000    519.66411   -3363.0125    622.13259    -3985.145    735.01185    14936.549   -19660.757    286.69312   -724.92051    10938.257   0.99852171 
  181000    522.76771   -3419.7374    649.38245   -4069.1199    728.39068    14859.398   -19659.343    299.25049   -1000.9797    10906.425     1.001436 
  182000    526.01134   -3370.1782    639.49004   -4009.6683    740.02839    14907.731   -19660.171    294.69183   -233.58514    10872.834    1.0045299 
  183000    529.25129   -3390.4796    626.61079   -4017.0904    826.51423    14812.674   -19659.793    288.75678    1627.8211    10689.408    1.0217672 
  184000    532.54084   -3415.5959    649.88609    -4065.482    793.66482    14798.685   -19661.081    299.48258    417.93747    10885.821    1.0033315 
  185000    535.72795   -3397.5662    630.39485    -4027.961    768.92995    14859.523   -19659.862    290.50056     383.4633    10701.224     1.020639 
  186000    538.93875   -3418.3605    649.84969   -4068.2102    783.92147    14804.565   -19659.175     299.4658     72.04256    10797.031    1.0115824 
  187000    542.08291   -3432.4487    585.95407   -4018.4028     786.2218     14852.57   -19659.276    270.02122    336.11138    10899.119    1.0021074 
  188000    545.20217   -3373.1116    672.17332   -4045.2849    772.99626    14839.215    -19661.12    309.75305   -58.493651    11043.151   0.98903714 
  189000     548.2169    -3295.273     668.9156   -3964.1886    703.61731    14987.479   -19657.926    308.25182   -799.25148    11047.547   0.98864366 
  190000    551.30564   -3414.4996    625.65276   -4040.1524    783.95452    14836.123   -19662.015     288.3153    427.29632     10746.51     1.016338 
  191000    554.26501     -3347.84    630.45947   -3978.2995    734.98451    14943.479   -19659.113    290.53034   -484.20843    11065.698   0.98702195 
  192000    557.33857   -3377.5308     624.6704   -4002.2012    777.34284    14876.908   -19658.478     287.8626    393.02771    11017.223   0.99136481 
  193000    560.33376   -3337.0899    656.75025   -3993.8402    771.40143      14890.2   -19658.528    302.64574    284.94044    10931.971   0.99909588 
  194000    563.37771   -3373.4236    635.77963   -4009.2032    742.75456    14903.858   -19658.671    292.98199   -591.29578    11133.219   0.98103585 
  195000    566.21382   -3338.2396    634.71832   -3972.9579    718.30184    14965.507   -19659.862    292.49292    -971.9023    11224.966   0.97301737 
  196000    569.19125   -3384.8433    613.31046   -3998.1538    792.41129    14866.921   -19660.368    282.62768    849.20195     10804.94     1.010842 
  197000    572.16142    -3364.543    656.04681   -4020.5898    728.40423    14911.697   -19662.873    302.32158    -558.1508    10885.879    1.0033262 
  198000    575.14492   -3280.6737    667.84991   -3948.5237    721.09287    14984.947   -19657.751    307.76072   -372.17558    10831.286    1.0083832 
  199000    578.24469   -3353.5271    646.52939   -4000.0565    763.56646    14890.737   -19658.516    297.93573    90.341544    10870.612    1.0047352 
  200000    581.16527   -3429.7279    650.20138   -4079.9293    778.52437    14798.897   -19661.287    299.62787    450.35651    10639.538    1.0265565 
Loop time of 581.165 on 12 procs for 200000 steps with 1089 atoms

Performance: 29.733 ns/day, 0.807 hours/ns, 344.136 timesteps/s
93.1% CPU use with 12 MPI tasks x 1 OpenMP threads

MPI task timing breakdown:
Section |  min time  |  avg time  |  max time  |%varavg| %total
---------------------------------------------------------------
Pair    | 228.82     | 259.13     | 298.53     | 122.0 | 44.59
Bond    | 0.14595    | 0.29354    | 0.74599    |  37.7 |  0.05
Kspace  | 117.63     | 157.71     | 187.59     | 156.3 | 27.14
Neigh   | 21.524     | 21.568     | 21.609     |   0.6 |  3.71
Comm    | 54.506     | 59.432     | 62.273     |  37.7 | 10.23
Output  | 0.012463   | 0.012863   | 0.016908   |   1.1 |  0.00
Modify  | 61.03      | 67.602     | 80.939     |  93.1 | 11.63
Other   |            | 15.41      |            |       |  2.65

Nlocal:        90.7500 ave          99 max          85 min
Histogram: 3 0 2 1 1 1 2 1 0 1
Nghost:        3840.92 ave        3901 max        3811 min
Histogram: 5 0 1 1 1 1 1 1 0 1
Neighs:        33120.1 ave       37893 max       30075 min
Histogram: 2 1 1 3 2 1 1 0 0 1

Total # of neighbors = 397441
Ave neighs/atom = 364.95960
Ave special neighs/atom = 2.0495868
Neighbor list builds = 8482
Dangerous builds = 4

reset_timestep 0
unfix NPT
fix NVT all nvt temp ${TK} ${TK} 100
fix NVT all nvt temp 300 ${TK} 100
fix NVT all nvt temp 300 300 100

variable dlambda equal -1.0
variable minusdl equal  1.0
variable dqC equal  (0.48+0.24)*v_dlambda
variable dqH equal -0.06*v_dlambda
variable dqF equal -0.12*v_dlambda

compute FEP all fep ${TK}     pair lj/cut/coul/long/soft lambda 2 4*5 v_minusdl     pair lj/cut/coul/long/soft lambda 3 4*5 v_dlambda     atom charge 1 v_dqC     atom charge 2 v_dqH     atom charge 3 v_dqF
compute FEP all fep 300     pair lj/cut/coul/long/soft lambda 2 4*5 v_minusdl     pair lj/cut/coul/long/soft lambda 3 4*5 v_dlambda     atom charge 1 v_dqC     atom charge 2 v_dqH     atom charge 3 v_dqF

fix FEP all ave/time 1 1 100 c_FEP[1] c_FEP[2] file bar10.fep

dump TRAJ all custom 5000 dump.lammpstrj id mol type element xu yu zu
dump_modify TRAJ element C H F H O

run 500000
PPPM initialization ...
  using 12-bit tables for long-range coulomb (src/lammps/src/kspace.cpp:339)
  G vector (1/distance) = 0.26835398
  grid = 12 12 12
  stencil order = 5
  estimated absolute RMS force accuracy = 0.025279937
  estimated relative force accuracy = 7.6129779e-05
  using double precision FFTW3
  3d grid and FFT values/proc = 1859 144
FEP settings ...
  temperature = 300.000000
  tail no
  lj/cut/coul/long/soft lambda 2-2 4-5
  lj/cut/coul/long/soft lambda 3-3 4-5
  1-1 charge
  2-2 charge
  3-3 charge
Neighbor list info ...
  update every 1 steps, delay 10 steps, check yes
  max neighbors/atom: 2000, page size: 100000
  master list distance cutoff = 12
  ghost atom cutoff = 12
  binsize = 6, bins = 4 4 4
  3 neighbor lists, perpetual/occasional/extra = 3 0 0
  (1) pair lj/cut/coul/long, perpetual, skip from (3)
      attributes: half, newton on
      pair build: skip
      stencil: none
      bin: none
  (2) pair lj/cut/coul/long/soft, perpetual, skip from (3)
      attributes: half, newton on
      pair build: skip
      stencil: none
      bin: none
  (3) neighbor class addition, perpetual
      attributes: half, newton on
      pair build: half/bin/newton
      stencil: half/bin/3d/newton
      bin: standard
Per MPI rank memory allocation (min/avg/max) = 17.62 | 17.63 | 17.63 Mbytes
Step CPU TotEng KinEng PotEng E_vdwl E_coul E_long Temp Press Volume Density 
       0            0   -3429.7922    650.20138   -4079.9936    778.52437    14663.799   -19526.253    299.62787    652.44739    10639.538    1.0265565 
    1000    2.7291422   -3450.6489    627.65424   -4078.3032    773.09784    14672.144    -19527.38    289.23762     59.67731    10639.538    1.0265565 
    2000    5.1716057   -3411.1345    620.56028   -4031.6948    809.89478    14683.189   -19527.769    285.96856    1462.7183    10639.538    1.0265565 
    3000     7.968929   -3427.5817    620.61297   -4048.1947    743.70039    14728.628   -19524.873    285.99284    -169.8359    10639.538    1.0265565 
    4000    10.834602   -3403.2917    623.25508   -4026.5468    767.68486    14725.525   -19524.184    287.21039    326.00696    10639.538    1.0265565 
    5000    13.693019   -3398.6065    636.38865   -4034.9951    759.72668    14726.811   -19524.365    293.26264    339.02075    10639.538    1.0265565 
    6000    16.533551   -3350.3057    652.78337   -4003.0891    764.35861    14751.967   -19524.454    300.81771     924.9462    10639.538    1.0265565 
    7000    19.253912   -3404.2832    670.21174    -4074.495    797.68565    14650.122   -19526.546    308.84911     533.3195    10639.538    1.0265565 
    8000     21.98252   -3371.3579    633.26103   -4004.6189    765.53416    14754.118   -19528.868    291.82136    700.42144    10639.538    1.0265565 
    9000    24.761323    -3363.913    657.76407   -4021.6771    762.55784    14736.432   -19524.862    303.11293    758.26965    10639.538    1.0265565 
   10000    27.510869   -3401.5672    649.32487   -4050.8921    803.02799    14667.781   -19525.977    299.22395    843.31476    10639.538    1.0265565 
   11000    30.308727   -3347.4148     659.3343   -4006.7491    728.76885     14786.68   -19525.337    303.83653   -348.62865    10639.538    1.0265565 
   12000    33.046295   -3411.9309    631.62777   -4043.5587    739.27973    14736.625   -19522.624    291.06872   -112.04497    10639.538    1.0265565 
   13000    35.575513   -3336.6583    650.41649   -3987.0748    752.70474    14780.905   -19523.349      299.727    322.72663    10639.538    1.0265565 
   14000    38.318888   -3382.7861    622.52704   -4005.3132    723.07035    14794.511   -19526.565    286.87489   -435.11698    10639.538    1.0265565 
   15000    40.923487   -3333.6311    690.50768   -4024.1388    809.79607    14686.722   -19524.038    318.20195    1315.9762    10639.538    1.0265565 
   16000    43.687979     -3408.64     629.9852   -4038.6252    735.79701    14746.634   -19526.286    290.31179   -254.91498    10639.538    1.0265565 
   17000    46.348893   -3423.3863    664.92129   -4088.3076    774.67755    14660.484   -19527.251    306.41115    13.155463    10639.538    1.0265565 
   18000     48.82842   -3361.6345    668.13913   -4029.7736    798.59159    14693.375    -19525.65      307.894    1259.4192    10639.538    1.0265565 
   19000    51.655868   -3349.2045    640.57789   -3989.7824     682.0504    14846.425   -19521.726    295.19314   -839.68398    10639.538    1.0265565 
   20000    54.624731   -3381.8901    674.30239   -4056.1925    812.96864    14651.917   -19524.988    310.73417    967.53452    10639.538    1.0265565 
   21000    57.445658   -3450.3503    637.03485   -4087.3851    833.76363    14601.791   -19525.692    293.56043    1307.6822    10639.538    1.0265565 
   22000    59.982307   -3420.9198    641.54018     -4062.46    809.12541    14650.544   -19525.127    295.63659    1282.2755    10639.538    1.0265565 
   23000    61.650047   -3399.1907    670.79208   -4069.9828    734.87706    14716.918   -19526.181    309.11654   -812.01885    10639.538    1.0265565 
   24000    63.693927   -3350.4532    674.17602   -4024.6292    776.94118    14721.839   -19526.089    310.67594    795.85597    10639.538    1.0265565 
   25000    66.474644   -3376.3911    677.04069   -4053.4318    783.65072    14684.348   -19526.032    311.99604    654.00846    10639.538    1.0265565 
   26000    69.167773   -3412.2885    642.43253    -4054.721    788.91637    14677.434   -19524.422     296.0478    307.72803    10639.538    1.0265565 
   27000    71.722682   -3439.8653    640.77286   -4080.6382    735.34045    14708.075   -19527.761    295.28299   -513.82263    10639.538    1.0265565 
   28000    74.336554    -3336.374    674.97319   -4011.3472    761.61859    14748.269   -19524.199    311.04329    358.85449    10639.538    1.0265565 
   29000    77.031292    -3348.963    681.51639   -4030.4794    758.98334    14734.901   -19526.745    314.05855    46.410876    10639.538    1.0265565 
   30000    79.797171   -3411.5693    632.42108   -4043.9904     796.2695    14679.101   -19524.341    291.43429    1045.1191    10639.538    1.0265565 
   31000    82.483715   -3338.7018    663.69187   -4002.3937    752.18681    14765.022   -19523.547     305.8446    511.97171    10639.538    1.0265565 
   32000    84.683009   -3391.1486    645.45562   -4036.6042     778.0448    14706.763   -19525.265    297.44091    416.85358    10639.538    1.0265565 
   33000    86.566625   -3369.3021    635.54203   -4004.8442    785.69823    14728.037   -19523.904     292.8725    939.00644    10639.538    1.0265565 
   34000    88.797298   -3362.4966    640.34124   -4002.8378     819.7279    14698.796   -19523.896    295.08409    1551.4306    10639.538    1.0265565 
   35000    90.944058   -3350.7449    650.94087   -4001.6858     761.8998    14753.821   -19521.664    299.96865    336.21971    10639.538    1.0265565 
   36000    93.403027   -3335.3558    655.18314   -3990.5389    737.12427    14789.809   -19521.292    301.92358    504.32156    10639.538    1.0265565 
   37000     96.06302   -3356.0052     636.3317   -3992.3369    722.11298    14809.397   -19526.614     293.2364   -208.83514    10639.538    1.0265565 
   38000    98.743705   -3420.9057    599.90014   -4020.8058    821.11624    14679.801   -19524.467    276.44789     1400.327    10639.538    1.0265565 
   39000    101.47237   -3411.5611    677.26273   -4088.8238    812.42695    14618.619   -19523.876    312.09837    1335.4487    10639.538    1.0265565 
   40000    104.15155   -3385.2785    636.06559   -4021.3441    757.66174    14745.495   -19527.066    293.11377    522.68756    10639.538    1.0265565 
   41000    106.94707   -3358.7323    668.21543   -4026.9477    737.54344    14758.158   -19526.717    307.92916   -120.17777    10639.538    1.0265565 
   42000    109.74407   -3420.2257    638.85491   -4059.0806    732.64594    14731.151   -19526.771    294.39915   -416.21524    10639.538    1.0265565 
   43000    112.18704   -3355.0504    646.10454   -4001.1549    783.61076    14734.907   -19523.912    297.73995    997.96062    10639.538    1.0265565 
   44000    114.86356    -3369.773    656.54091   -4026.3139    792.89064    14701.324   -19525.171    302.54927     1178.815    10639.538    1.0265565 
   45000    117.65448   -3345.3679    653.62598   -3998.9938    700.58855    14817.227   -19522.587      301.206   -406.11634    10639.538    1.0265565 
   46000    120.49276   -3342.2174    654.71008   -3996.9275     825.5742    14697.909   -19524.204    301.70558    1789.6769    10639.538    1.0265565 
   47000    123.41476   -3344.5757    664.75177   -4009.3275    758.71862     14747.98   -19522.362    306.33303    293.32658    10639.538    1.0265565 
   48000    126.32958   -3355.7535    637.16455    -3992.918    743.03625    14787.882    -19528.96     293.6202    358.19484    10639.538    1.0265565 
   49000    129.03755   -3355.9515    672.84468   -4028.7962    767.40704    14724.747   -19523.491    310.06243     755.5964    10639.538    1.0265565 
   50000    131.97426   -3404.0342    645.96341   -4049.9976    787.92262    14681.847   -19525.293    297.67491    778.66192    10639.538    1.0265565 
   51000    134.04972   -3410.1015    652.43717   -4062.5387     809.4301    14647.951   -19524.104    300.65817    903.03684    10639.538    1.0265565 
   52000    136.77299    -3379.743     637.0683   -4016.8113    803.33313    14700.477   -19526.191    293.57584    1277.2462    10639.538    1.0265565 
   53000    139.51815   -3349.8944    640.79766   -3990.6921    763.57782    14762.409   -19525.009    295.29442    503.04198    10639.538    1.0265565 
   54000     142.2336   -3358.8485    641.68935   -4000.5379    794.92237     14726.13   -19525.883    295.70533    1205.7962    10639.538    1.0265565 
   55000    144.90981   -3401.3416    661.07081   -4062.4125    785.43388    14674.535   -19526.181    304.63676    750.70851    10639.538    1.0265565 
   56000    147.27339   -3330.9118     632.2723   -3963.1841    780.11058    14775.696   -19525.607    291.36573    1511.3127    10639.538    1.0265565 
   57000    149.22047   -3355.9074    630.47665    -3986.384    770.90443    14766.605   -19526.533    290.53826    991.90206    10639.538    1.0265565 
   58000    151.92614   -3340.0679    682.71741   -4022.7853    795.37774    14702.475   -19524.989    314.61201    937.85942    10639.538    1.0265565 
   59000    154.66636   -3422.4041    637.02033   -4059.4245    778.60352    14681.802   -19523.521    293.55373    94.354954    10639.538    1.0265565 
   60000    157.42777   -3380.9686    636.14014   -4017.1087    745.12768    14759.487   -19527.126    293.14812    19.904143    10639.538    1.0265565 
   61000    160.11689   -3327.7712    680.00903   -4007.7802    860.40314    14653.548    -19526.08    313.36393    2788.3214    10639.538    1.0265565 
   62000    162.74908   -3400.8597    660.46114   -4061.3209    858.52186    14603.811   -19526.217     304.3558    2109.1113    10639.538    1.0265565 
   63000    165.44916    -3331.974    653.36882   -3985.3428    785.83331    14746.915   -19524.433     301.0875    1136.5356    10639.538    1.0265565 
   64000    168.10307   -3324.6292    686.03374   -4010.6629    769.36748    14740.735   -19523.487    316.14025    562.76551    10639.538    1.0265565 
   65000    170.81692   -3395.4172    648.54112   -4043.9583    797.08899    14677.201   -19525.494    298.86278    1057.4446    10639.538    1.0265565 
   66000    173.52032   -3409.1972     622.4435   -4031.6407    764.79656    14726.346   -19525.189    286.83639    220.29049    10639.538    1.0265565 
   67000    176.25861   -3336.9136    650.64221   -3987.5559    734.57922    14797.465   -19525.031    299.83102    185.24469    10639.538    1.0265565 
   68000    178.97811   -3419.0043    646.22072    -4065.225    739.12677    14714.999   -19523.469    297.79349   -237.33292    10639.538    1.0265565 
   69000    181.78935   -3400.8504    635.73886   -4036.5893    734.16122    14750.312    -19525.52     292.9632   -411.60512    10639.538    1.0265565 
   70000    184.59888   -3330.4605    652.60428   -3983.0648    795.97595    14740.753   -19524.794    300.73518    1214.9723    10639.538    1.0265565 
   71000     187.3256   -3372.2136    627.22781   -3999.4414    744.38835    14777.542   -19525.365    289.04111    84.990592    10639.538    1.0265565 
   72000    190.11848   -3361.4733    661.27334   -4022.7467    746.76603     14752.21   -19526.821    304.73008   -129.67396    10639.538    1.0265565 
   73000    192.57052   -3401.5678    617.80462   -4019.3724    802.49347    14698.404   -19524.439    284.69869    1087.9815    10639.538    1.0265565 
   74000    195.28651   -3408.3586    640.05135   -4048.4099    754.83154    14720.799   -19526.938     294.9505    162.78707    10639.538    1.0265565 
   75000    198.13433   -3327.3418    648.24383   -3975.5856    724.19304    14822.311   -19525.199    298.72578    184.26521    10639.538    1.0265565 
   76000    200.87688   -3376.7651    622.64848   -3999.4135    737.74377    14783.205   -19523.674    286.93085    115.64755    10639.538    1.0265565 
   77000    203.65405   -3326.6595    659.43476   -3986.0942    746.96548      14782.3   -19524.805    303.88283     410.5352    10639.538    1.0265565 
   78000    206.46407    -3361.891    683.81526   -4045.7062    755.53313     14719.08   -19526.482    315.11792    141.69366    10639.538    1.0265565 
   79000    209.28615   -3419.8934    629.26127   -4049.1547    725.36867    14743.856   -19524.608    289.97818   -605.98398    10639.538    1.0265565 
   80000     212.1369    -3382.406    660.01867   -4042.4247    760.63487     14721.11   -19528.112     304.1519    276.86905    10639.538    1.0265565 
   81000     215.0377   -3373.2732     659.3394   -4032.6126    736.56659     14752.35   -19526.955    303.83888   -24.597631    10639.538    1.0265565 
   82000    217.82327   -3398.8614    658.57628   -4057.4377    788.65162    14676.446   -19526.278    303.48722    559.62897    10639.538    1.0265565 
   83000    220.63425   -3371.1176    656.88461   -4028.0022    740.88309    14753.263   -19526.172    302.70765    193.25628    10639.538    1.0265565 
   84000    223.37483   -3416.1345    658.52012   -4074.6547    758.99181    14686.332   -19527.832    303.46134   -151.83906    10639.538    1.0265565 
   85000    226.23906   -3443.2905    641.82004   -4085.1106    814.74371    14619.379   -19523.643    295.76555    818.48553    10639.538    1.0265565 
   86000    229.00901   -3329.7147    664.51638   -3994.2311     771.3135    14749.171   -19522.717    306.22455    978.55403    10639.538    1.0265565 
   87000    231.56068   -3404.3329    646.44121   -4050.7741    750.43361    14718.952   -19526.746    297.89509   -254.43954    10639.538    1.0265565 
   88000    233.88616   -3418.9697     611.5885   -4030.5582    817.90984    14670.607   -19524.025    281.83416    1341.9961    10639.538    1.0265565 
   89000    236.24065   -3410.2565    654.28135   -4064.5378    742.77035    14711.575   -19525.809    301.50802   -344.97502    10639.538    1.0265565 
   90000    238.91717   -3336.8873    651.15353   -3988.0408    756.68059    14772.532   -19525.261    300.06664    500.30301    10639.538    1.0265565 
   91000    241.72537   -3430.6976     661.8776   -4092.5752    806.59663    14622.735   -19525.848    305.00854    751.63725    10639.538    1.0265565 
   92000    244.45429   -3421.3133    641.74327   -4063.0565    760.62742    14697.095   -19524.524    295.73017     149.4128    10639.538    1.0265565 
   93000     247.1975   -3360.0804    651.20156   -4011.2819    771.55929    14736.306    -19526.26    300.08878    746.68266    10639.538    1.0265565 
   94000     249.9248   -3407.7869    641.51735   -4049.3043     788.6437    14684.493   -19526.005    295.62606    464.20851    10639.538    1.0265565 
   95000    252.58353    -3378.659    650.78504    -4029.444    760.35271    14731.072   -19524.811    299.89683    444.93058    10639.538    1.0265565 
   96000    255.32134   -3330.1023    669.64097   -3999.7433    714.90218    14804.621   -19525.758    308.58608   -326.11837    10639.538    1.0265565 
   97000    258.14039   -3401.5444    645.21293   -4046.7573    753.64161    14720.357   -19526.133    297.32908    344.61386    10639.538    1.0265565 
   98000    260.86218   -3366.5109    652.84601   -4019.3569    786.66123    14716.049   -19526.621    300.84658    1073.8273    10639.538    1.0265565 
   99000    263.69703   -3443.5108    640.68174   -4084.1925    802.74186    14632.238   -19525.656      295.241    490.32529    10639.538    1.0265565 
  100000    266.52584   -3395.1856    654.98557   -4050.1712    775.14639    14693.639    -19524.85    301.83253    327.20012    10639.538    1.0265565 
  101000    269.33164   -3362.7775    659.02251      -4021.8    799.90742    14700.186   -19525.738    303.69285    1045.8799    10639.538    1.0265565 
  102000    272.05587   -3393.9201    600.06592    -3993.986    734.45289    14793.602   -19525.325    276.52429   -1.4933466    10639.538    1.0265565 
  103000    274.78403   -3424.4179    618.72664   -4043.1446    765.29912    14713.021    -19525.77    285.12358     53.33328    10639.538    1.0265565 
  104000    277.48115   -3370.7925    649.37022   -4020.1628    776.21063    14721.258   -19522.021    299.24485    564.07491    10639.538    1.0265565 
  105000    280.18312   -3376.9701     669.7867   -4046.7568    784.06462    14692.183    -19527.08    308.65324    526.01878    10639.538    1.0265565 
  106000    282.87482   -3407.3238    627.65545   -4034.9793    707.46692    14773.129   -19520.959    289.23818   -966.94501    10639.538    1.0265565 
  107000    285.58308   -3306.9154    686.73553   -3993.6509    757.01659    14769.305   -19524.341    316.46365     535.0615    10639.538    1.0265565 
  108000    288.29437    -3360.467    676.24466   -4036.7117    776.64508    14706.958   -19524.532    311.62922    804.33868    10639.538    1.0265565 
  109000    290.93233    -3435.705    633.40442   -4069.1094    787.17355    14660.322   -19523.879    291.88744    228.09024    10639.538    1.0265565 
  110000    293.36292   -3375.8511    644.04865   -4019.8997    817.07977     14683.72   -19524.672    296.79255    1910.4063    10639.538    1.0265565 
  111000    295.26211   -3403.9612    669.70694   -4073.6681    747.77223    14701.802   -19526.584    308.61648   -225.57036    10639.538    1.0265565 
  112000    297.52042   -3418.0592    643.01724   -4061.0765    830.53356    14628.816   -19525.302    296.31725    1340.5685    10639.538    1.0265565 
  113000    300.24027   -3398.2637    641.96342   -4040.2271    820.70664    14659.025   -19526.447    295.83163    1283.9447    10639.538    1.0265565 
  114000    302.97179   -3337.6973    667.41244   -4005.1097    731.68392    14783.578   -19523.626    307.55912    178.41341    10639.538    1.0265565 
  115000    305.68675   -3438.3488    658.42861   -4096.7774    807.84144    14618.191   -19527.105    303.41917    660.50167    10639.538    1.0265565 
  116000    308.34932   -3428.7686    674.88463   -4103.6532    789.15031    14629.036    -19526.82    311.00249    465.87085    10639.538    1.0265565 
  117000    311.01953   -3390.4301    659.03825   -4049.4683    805.55026    14666.679    -19526.23     303.7001    991.47707    10639.538    1.0265565 
  118000    313.69237   -3385.5088    647.21139   -4032.7202    760.29794    14724.257   -19522.867    298.25001    435.65907    10639.538    1.0265565 
  119000    315.83685   -3366.5251    658.42891    -4024.954    775.64672    14720.979   -19527.847     303.4193    720.78583    10639.538    1.0265565 
  120000    317.55276   -3392.9268    653.15321     -4046.08    766.35652    14704.076   -19522.978    300.98814    326.64029    10639.538    1.0265565 
  121000    319.65682    -3315.701    672.39002   -3988.0911    803.12464    14723.925   -19521.595    309.85291    1495.2235    10639.538    1.0265565 
  122000    321.42941   -3368.9156    670.70119   -4039.6168    755.17519    14717.867   -19519.449    309.07466    451.70662    10639.538    1.0265565 
  123000    323.91228   -3323.8318    651.47105   -3975.3029    753.97394    14787.653   -19524.796    300.21296     630.8664    10639.538    1.0265565 
  124000    326.50481   -3413.1469    625.63158   -4038.7785    749.13976     14734.81   -19528.205    288.30554     -158.216    10639.538    1.0265565 
  125000    328.30047   -3420.5551    659.81063   -4080.3657    759.66182    14682.442   -19526.951    304.05603   -111.99092    10639.538    1.0265565 
  126000    330.54699   -3383.9896    652.22196   -4036.2116    732.71066    14751.922   -19525.327      300.559   -240.19608    10639.538    1.0265565 
  127000    333.17297   -3389.7255     652.6745      -4042.4    792.56708    14682.772   -19522.461    300.76754    785.55726    10639.538    1.0265565 
  128000    335.49646   -3372.6339    671.58331   -4044.2172    787.88607    14688.611    -19525.11    309.48116    788.92839    10639.538    1.0265565 
  129000    338.17901    -3390.577    635.38335   -4025.9603    725.64717    14769.876   -19527.551    292.79938   -426.68519    10639.538    1.0265565 
  130000    340.84844   -3375.5875    630.20215   -4005.7896    720.60558    14791.031   -19522.959    290.41176   -284.22711    10639.538    1.0265565 
  131000     343.5876   -3369.8782    663.75533   -4033.6335    797.37699    14685.934   -19526.374    305.87384    1260.4077    10639.538    1.0265565 
  132000    346.33827   -3395.6051     643.3618   -4038.9669    786.50545    14691.586   -19525.396    296.47603    475.67507    10639.538    1.0265565 
  133000    349.10464   -3375.4495    619.71621   -3995.1657    737.71422    14780.832   -19523.677     285.5796    214.74059    10639.538    1.0265565 
  134000    351.89573   -3434.3044    643.71911   -4078.0235    879.43211    14563.297   -19526.941    296.64069    2257.2448    10639.538    1.0265565 
  135000    354.62878   -3432.8942    657.84518   -4090.7394    777.98994    14649.481   -19526.488    303.15031   -238.79523    10639.538    1.0265565 
  136000    357.24843   -3386.6057    665.08575   -4051.6915    792.16694    14673.467   -19523.104    306.48693    632.60621    10639.538    1.0265565 
  137000    358.92567   -3410.2829    651.02241   -4061.3053    780.62408    14678.899   -19527.678    300.00622    514.33246    10639.538    1.0265565 
  138000    361.35402   -3320.7007    681.79672   -4002.4974      716.299     14801.96   -19526.035    314.18773   -851.63767    10639.538    1.0265565 
  139000    363.90562   -3432.8912    638.55524   -4071.4464    834.29222     14613.07   -19526.758    294.26106    1204.3721    10639.538    1.0265565 
  140000    366.39984   -3383.4718    647.12022    -4030.592    752.88108    14732.477   -19527.169      298.208    97.369304    10639.538    1.0265565 
  141000    368.63459   -3373.8452    666.94436   -4040.7896    798.30571    14675.493    -19523.93    307.34342    1121.8947    10639.538    1.0265565 
  142000    370.84184   -3350.0982    676.41888   -4026.5171    783.26678    14709.507   -19525.644     311.7095     841.4093    10639.538    1.0265565 
  143000    373.37927   -3403.5851    643.44583   -4047.0309    829.35437    14639.445   -19526.047    296.51476    1625.6221    10639.538    1.0265565 
  144000    375.78782   -3361.0982    642.55161   -4003.6498    732.70213    14785.078   -19527.138    296.10268    5.8372418    10639.538    1.0265565 
  145000    378.58039   -3402.8877    643.24997   -4046.1376     749.2542    14725.899   -19525.083     296.4245   -48.481171    10639.538    1.0265565 
  146000     381.4263    -3289.759    666.44229   -3956.2013    738.67935     14816.59   -19523.371    307.11206     541.9302    10639.538    1.0265565 
  147000    384.18484   -3290.5792    671.85122   -3962.4304    763.12089    14788.345   -19524.456    309.60462    1202.0839    10639.538    1.0265565 
  148000    386.93709   -3422.2636    628.56874   -4050.8324    768.15339    14699.487   -19524.897    289.65905    41.514054    10639.538    1.0265565 
  149000    389.60441   -3354.0694    681.88505   -4035.9545    771.15721    14707.355   -19525.156    314.22844    887.36507    10639.538    1.0265565 
  150000    392.37001   -3388.1423    637.83449   -4025.9768    774.93764    14713.607   -19523.827    293.92892    742.17543    10639.538    1.0265565 
  151000     395.1193   -3327.1466    660.15237   -3987.2989    726.87539    14803.493     -19523.5    304.21352   -159.44617    10639.538    1.0265565 
  152000    397.97267    -3369.493    653.85271   -4023.3457    805.40881    14688.967   -19524.357    301.31049    1498.9289    10639.538    1.0265565 
  153000    399.98216    -3302.463    686.96425   -3989.4272    702.75823    14824.855    -19526.33    316.56905   -406.59771    10639.538    1.0265565 
  154000    402.13203   -3364.6895    656.25413   -4020.9436    784.24799    14714.119   -19523.074    302.41712     355.0304    10639.538    1.0265565 
  155000    404.94042   -3404.0286    653.69757   -4057.7262    763.66304    14697.054   -19524.594    301.23899    97.682113    10639.538    1.0265565 
  156000    407.76279   -3368.5604    651.98794   -4020.5483    750.16144    14744.741   -19522.747    300.45116    133.56253    10639.538    1.0265565 
  157000    410.58102   -3387.4859     649.2114   -4036.6973     747.6924    14737.848   -19525.602    299.17166    134.22889    10639.538    1.0265565 
  158000    413.37028   -3468.2329    639.77376   -4108.0067    793.22919    14620.302   -19527.627    294.82258    253.45087    10639.538    1.0265565 
  159000    416.18785   -3438.8649    682.27872   -4121.1436    756.12642    14642.338   -19525.551    314.40985   -442.88126    10639.538    1.0265565 
  160000    418.80813    -3406.858     636.6109   -4043.4689    828.52181    14650.669   -19528.983    293.36506    1614.7456    10639.538    1.0265565 
  161000    421.36559    -3334.366    684.52528   -4018.8913    820.80972    14679.711   -19526.092    315.44512    1621.9643    10639.538    1.0265565 
  162000    424.09774   -3430.7067    651.58799   -4082.2946    742.07264      14696.7   -19527.318    300.26685   -315.76918    10639.538    1.0265565 
  163000    426.58662   -3464.8847    621.65712   -4086.5419    815.57922    14617.357   -19525.455    286.47401    668.60384    10639.538    1.0265565 
  164000    428.96872   -3408.6867    615.17649   -4023.8632    730.58492    14764.019   -19525.943    283.48759   -79.465477    10639.538    1.0265565 
  165000    431.54259   -3381.2383    648.89878   -4030.1371    751.76167    14741.531   -19528.119     299.0276    266.21974    10639.538    1.0265565 
  166000    434.03694   -3310.6728    650.68434   -3961.3572    727.92971    14826.891   -19524.287    299.85043    231.18994    10639.538    1.0265565 
  167000    436.53293   -3369.2217    644.58051   -4013.8022    735.14407      14769.6    -19525.47    297.03764   -58.895673    10639.538    1.0265565 
  168000    439.03199   -3408.8625    652.69246    -4061.555    800.97325    14653.257   -19524.966    300.77582    762.45447    10639.538    1.0265565 
  169000    441.54828   -3371.9388     664.9678   -4036.9066    822.91012    14658.283   -19526.897    306.43258    1351.9572    10639.538    1.0265565 
  170000    443.77976   -3381.6772    646.76482    -4028.442    803.67737    14683.049   -19524.287    298.04422    1242.9905    10639.538    1.0265565 
  171000    445.74701   -3392.1185    653.34063   -4045.4591    854.59944     14618.33   -19526.961    301.07451    2494.8493    10639.538    1.0265565 
  172000     448.3887   -3380.0391    662.55937   -4042.5985    771.12325    14707.574   -19527.093    305.32272    403.91973    10639.538    1.0265565 
  173000    450.84402   -3371.0288    655.76643   -4026.7952    775.69262    14715.484    -19527.23    302.19237    685.03028    10639.538    1.0265565 
  174000    453.53736   -3322.3388    654.20207   -3976.5408     726.7548    14812.729   -19524.454    301.47148    186.17002    10639.538    1.0265565 
  175000    456.23709   -3425.9222    621.90536   -4047.8276    828.41058    14642.512   -19525.633    286.58841    1635.5076    10639.538    1.0265565 
  176000    458.94148   -3407.3668    641.80276   -4049.1696    784.05526    14686.096   -19527.375    295.75759    582.89449    10639.538    1.0265565 
  177000     461.6432   -3327.8301    669.92863   -3997.7587    747.28844    14768.331   -19524.672    308.71864    524.02256    10639.538    1.0265565 
  178000    464.33892   -3429.0437    640.88799   -4069.9317    807.75645    14640.445   -19525.139    295.33604    972.07457    10639.538    1.0265565 
  179000    466.99625   -3407.0945    626.53841   -4033.6329    784.76454    14701.566   -19524.916    288.72342    381.22353    10639.538    1.0265565 
  180000    468.91757    -3376.066    647.79608   -4023.8621    803.94346    14689.558    -19526.13    298.51945    1417.6011    10639.538    1.0265565 
  181000    471.31601    -3364.561    657.82255   -4022.3836    768.05005    14727.305   -19523.988    303.13988     491.2495    10639.538    1.0265565 
  182000    474.03397   -3360.8422    642.19061   -4003.0328    762.16599    14751.571   -19523.222    295.93632    204.01757    10639.538    1.0265565 
  183000    476.56398   -3365.7105    631.97077   -3997.6813    737.14305    14784.567   -19524.699    291.22678    340.97039    10639.538    1.0265565 
  184000    479.31219   -3306.2284     677.1482   -3983.3766    751.71634    14783.452   -19524.116    312.04559    462.92796    10639.538    1.0265565 
  185000    481.72831   -3357.2919    673.95586   -4031.2477        788.3    14702.364   -19527.025    310.57448    768.30402    10639.538    1.0265565 
  186000     483.3904   -3385.7837    651.21869   -4037.0024    806.54134     14674.49   -19523.915    300.09667    1384.0458    10639.538    1.0265565 
  187000    485.31542   -3405.0405    635.18439   -4040.2249    819.59705    14663.841   -19526.792    292.70769    1593.4107    10639.538    1.0265565 
  188000    487.09394   -3397.7922     648.3141   -4046.1063    783.07154    14690.561   -19525.415    298.75817    514.95629    10639.538    1.0265565 
  189000     489.6931   -3366.8194    668.74814   -4035.5675    736.69976    14749.164   -19525.973    308.17465  -0.89510285    10639.538    1.0265565 
  190000    492.23903   -3412.6793    615.52882   -4028.2082    800.13096    14691.958    -19527.72    283.64995    652.52861    10639.538    1.0265565 
  191000    494.34764   -3384.8282    647.05157   -4031.8798    733.79475    14753.866   -19527.241    298.17637   -414.46997    10639.538    1.0265565 
  192000    496.97913   -3381.3583    651.41865    -4032.777    836.77512    14654.062   -19527.392    300.18881    2325.9847    10639.538    1.0265565 
  193000    499.71964   -3335.7475    660.47883   -3996.2263    740.21665    14783.615   -19526.822    304.36395    91.449196    10639.538    1.0265565 
  194000    502.41394   -3397.7632    613.65787   -4011.4211    781.39882    14728.617   -19527.793    282.78777    754.64844    10639.538    1.0265565 
  195000    505.08755   -3329.4935    662.57668   -3992.0702     777.3156    14750.625   -19525.624    305.33069    1412.1191    10639.538    1.0265565 
  196000    507.72871   -3373.8438    647.58835   -4021.4322    804.54828    14692.636   -19524.948    298.42373    918.56882    10639.538    1.0265565 
  197000    510.39867   -3359.6951    648.28594    -4007.981    715.32978     14795.33   -19524.309    298.74519   -311.12748    10639.538    1.0265565 
  198000    513.05751   -3450.4059    590.82924   -4041.2352    816.36293     14661.78   -19525.345    272.26781    1323.8352    10639.538    1.0265565 
  199000    515.70716    -3387.387    662.47297   -4049.8599    729.51555    14741.001    -19527.01     305.2829   -437.90877    10639.538    1.0265565 
  200000     518.3601   -3317.9269    673.40748   -3991.3344    786.98775    14739.523   -19526.179    310.32178    834.50616    10639.538    1.0265565 
  201000    520.88897    -3359.876    656.22662   -4016.1026    735.37866    14770.053   -19526.463    302.40444    199.81408    10639.538    1.0265565 
  202000    523.55782   -3433.2986    643.48632   -4076.7849    731.71709     14710.18   -19526.852    296.53342   -986.38524    10639.538    1.0265565 
  203000    526.27299   -3382.3396    634.89242   -4017.2321    791.60572    14707.366    -19524.89    292.57314    596.28027    10639.538    1.0265565 
  204000     529.0166   -3408.3538    637.50853   -4045.8623    723.09496    14751.404   -19525.269    293.77871   -468.70406    10639.538    1.0265565 
  205000    531.26092   -3394.1809     657.4072   -4051.5881    743.85123    14724.953   -19526.719    302.94848   -86.362946    10639.538    1.0265565 
  206000    533.00902   -3389.5221    607.70177   -3997.2239    716.16318    14805.307   -19525.773    280.04306   -610.88277    10639.538    1.0265565 
  207000    535.50775   -3362.9107     650.3893      -4013.3    774.71595    14733.827   -19524.239    299.71447    772.41179    10639.538    1.0265565 
  208000    538.17418   -3391.4052    646.60347   -4038.0087    829.23798    14651.532    -19525.88    297.96987    1791.4232    10639.538    1.0265565 
  209000    540.86596   -3383.7199    650.85213    -4034.572    759.22248     14725.64   -19525.385    299.92775    75.207769    10639.538    1.0265565 
  210000    543.61752   -3383.6942     639.5156   -4023.2098    774.58508    14721.355   -19523.989    294.70361    404.18233    10639.538    1.0265565 
  211000    546.50457   -3458.6379    602.64315   -4061.2811    774.68096    14684.679   -19526.225    277.71193    322.16873    10639.538    1.0265565 
  212000    549.29903   -3413.7997    644.71293   -4058.5126    816.11097    14644.195   -19524.017    297.09866    1201.3393    10639.538    1.0265565 
  213000    552.13909   -3410.4791    617.27724   -4027.7564    791.74715    14700.648    -19526.42    284.45566    648.01153    10639.538    1.0265565 
  214000    554.83332   -3352.2764    653.61958    -4005.896    757.63536    14756.729   -19528.437    301.20306     590.6322    10639.538    1.0265565 
  215000    557.53013   -3397.6158    645.68146   -4043.2972    798.26785    14679.419   -19526.063    297.54499    833.51683    10639.538    1.0265565 
  216000      560.209   -3397.9226    654.37578   -4052.2984    807.97125    14659.648   -19525.654    301.55153    904.28009    10639.538    1.0265565 
  217000    562.99551   -3418.9474    660.40463   -4079.3521    715.59148    14722.811   -19525.689    304.32976   -952.07069    10639.538    1.0265565 
  218000    565.70767   -3362.1067    631.24728    -3993.354    771.53596    14750.269   -19520.768    290.89338    767.60233    10639.538    1.0265565 
  219000    568.34472   -3405.0373    626.58986   -4031.6272    781.03421    14704.947   -19525.162    288.74713    223.60949    10639.538    1.0265565 
  220000    570.27588   -3344.0735    651.65673   -3995.7302    773.53326    14747.909   -19526.458    300.29853    1240.3513    10639.538    1.0265565 
  221000    572.72133   -3427.2254    632.24833   -4059.4737     774.0578    14683.774   -19521.397    291.35469    298.88131    10639.538    1.0265565 
  222000    575.58566   -3405.6327    650.60597   -4056.2386    776.83379    14684.727   -19526.274    299.81431    400.93683    10639.538    1.0265565 
  223000    577.40423   -3377.5029    626.99012    -4004.493    734.54066    14781.917    -19526.93    288.93158    27.109141    10639.538    1.0265565 
  224000      579.858   -3384.3942    636.22861   -4020.6228    815.12274    14681.516   -19527.122    293.18889     1501.942    10639.538    1.0265565 
  225000    582.61781    -3356.978    656.61718   -4013.5952    768.67909    14738.906   -19525.473    302.58442    466.39899    10639.538    1.0265565 
  226000    584.70202   -3361.5922    653.43033   -4015.0226    746.35467    14754.452   -19524.632    301.11585    198.53768    10639.538    1.0265565 
  227000    587.09219   -3335.9644    673.31018   -4009.2745    756.66118    14751.774   -19525.827    310.27694    323.12144    10639.538    1.0265565 
  228000    589.53686   -3361.2413    625.90879   -3987.1501     771.3683    14758.557   -19523.608    288.43328    675.06014    10639.538    1.0265565 
  229000    591.88501   -3275.9859    654.13081   -3930.1167    741.62334     14845.54    -19525.56    301.43864    533.09418    10639.538    1.0265565 
  230000    594.52069   -3358.7552    658.63381    -4017.389    720.12138    14780.923   -19525.456    303.51373   -181.41954    10639.538    1.0265565 
  231000    597.09698   -3333.3785    665.81614   -3999.1947    749.95024    14769.275   -19523.703    306.82351     363.9144    10639.538    1.0265565 
  232000    599.73717   -3399.1713    655.43223   -4054.6036    804.10603    14659.714   -19524.921    302.03837    1024.0204    10639.538    1.0265565 
  233000     602.5334   -3419.6514    632.70414   -4052.3556    826.68274    14639.632    -19526.01    291.56474    1395.4518    10639.538    1.0265565 
  234000    605.38347   -3376.5826     691.1142   -4067.6968    824.30771    14628.916   -19526.533    318.48145    1422.7062    10639.538    1.0265565 
  235000    608.20712   -3380.7083    649.34923   -4030.0575    738.03526    14747.648    -19524.98    299.23518   -712.60878    10639.538    1.0265565 
  236000    610.90291   -3371.3312     658.9519   -4030.2831    792.36078    14697.215   -19526.983    303.66031    1180.0802    10639.538    1.0265565 
  237000    613.63622   -3364.7085    674.37468   -4039.0832    786.76802    14692.338   -19525.335    310.76749    815.89316    10639.538    1.0265565 
  238000    616.18386   -3386.4074     646.2322   -4032.6396    723.80283    14757.891   -19523.627    297.79878   -502.43993    10639.538    1.0265565 
  239000    618.74063   -3389.9353    643.48649   -4033.4218    749.72697    14736.578   -19525.532    296.53349    96.019696    10639.538    1.0265565 
  240000    621.19553   -3315.0441    690.58815   -4005.6323    735.48596    14775.432   -19524.887    318.23903   -19.005587    10639.538    1.0265565 
  241000    623.74102   -3355.5417    682.26774   -4037.8095    730.57355    14752.828   -19527.273    314.40479   -288.36506    10639.538    1.0265565 
  242000    626.40151   -3431.4306    642.60302   -4074.0337    837.08835    14606.852   -19526.542    296.12637    1166.7637    10639.538    1.0265565 
  243000    629.07084   -3374.2942    633.09112   -4007.3853    774.80278    14737.103   -19525.638    291.74307    1096.0673    10639.538    1.0265565 
  244000    631.67615   -3392.8474    642.28924   -4035.1367    761.69701    14719.796    -19525.24    295.98177    71.011461    10639.538    1.0265565 
  245000    634.44373    -3393.346    645.83238   -4039.1784    696.87955    14782.037   -19525.995    297.61453    -1396.592    10639.538    1.0265565 
  246000    636.81866   -3410.1946    634.31979   -4044.5144    772.97787    14698.372   -19523.364    292.30927    422.81719    10639.538    1.0265565 
  247000    639.39718   -3350.8588    655.74838   -4006.6072    785.97867    14726.755   -19525.573    302.18406    1075.6379    10639.538    1.0265565 
  248000     641.8275   -3380.8212     644.8867   -4025.7079    788.73559    14703.397   -19525.088    297.17874    677.82763    10639.538    1.0265565 
  249000    644.28616   -3359.7722    646.15857   -4005.9308    759.96185    14750.955   -19523.975    297.76485     596.1086    10639.538    1.0265565 
  250000    646.34663   -3375.2807    616.70844   -3991.9892    734.37631    14791.596   -19524.622    284.19355   -103.39371    10639.538    1.0265565 
  251000    648.85495   -3350.2652    637.39744   -3987.6626    767.03244    14760.205   -19524.875    293.72752    607.55489    10639.538    1.0265565 
  252000    651.47206   -3319.4084    678.91557    -3998.324    722.45225     14796.95   -19525.818    312.86003   -139.40162    10639.538    1.0265565 
  253000    654.01368   -3386.1705    629.74289   -4015.9133    801.71847     14700.14   -19527.644    290.20012    1298.6584    10639.538    1.0265565 
  254000    656.58552   -3436.4174    613.30378   -4049.7211    810.44791    14659.222   -19526.096     282.6246    849.67055    10639.538    1.0265565 
  255000    658.89538   -3391.1086     648.5703   -4039.6789    787.23554    14691.558   -19524.442    298.87623    636.01423    10639.538    1.0265565 
  256000    660.56605   -3347.6304    661.89568   -4009.5261    747.17263    14759.207   -19523.417    305.01688    362.42598    10639.538    1.0265565 
  257000    663.01038   -3381.1267    661.76887   -4042.8956    757.61378    14716.092   -19524.056    304.95844   0.59355855    10639.538    1.0265565 
  258000    665.65073   -3305.8513    681.86378   -3987.7151    737.68637    14794.486   -19523.869    314.21863    148.16828    10639.538    1.0265565 
  259000    668.16658   -3433.2493    629.78933   -4063.0386    806.43429     14647.84   -19524.251    290.22152    789.65741    10639.538    1.0265565 
  260000    670.70708   -3408.1969    649.42478   -4057.6217    793.87173    14666.742   -19526.061       299.27    604.35138    10639.538    1.0265565 
  261000    673.31813      -3372.8    675.03819   -4047.8382    789.80173    14682.054   -19526.295    311.07325    720.51255    10639.538    1.0265565 
  262000    675.79133   -3323.6843    683.59826   -4007.2826    758.98814    14752.285   -19523.951    315.01792    334.96367    10639.538    1.0265565 
  263000    678.28946   -3389.1229    645.75263   -4034.8756    742.00776    14737.992   -19522.992    297.57778   -373.31785    10639.538    1.0265565 
  264000    680.73987   -3360.7297     629.3792   -3990.1089    726.46476    14798.776   -19521.254    290.03252    91.273053    10639.538    1.0265565 
  265000    683.41397   -3308.2555    696.65982   -4004.9153    725.53942    14788.784   -19524.289      321.037   -249.30032    10639.538    1.0265565 
  266000    685.90883   -3404.3341    645.16299   -4049.4971    755.14287    14714.083   -19526.226    297.30606   0.83845084    10639.538    1.0265565 
  267000    687.60664   -3382.7106     619.7595   -4002.4701    692.74075    14817.199   -19522.423    285.59955   -1027.3717    10639.538    1.0265565 
  268000    690.07183   -3395.8831    651.47636   -4047.3595    727.82643     14742.33   -19526.475    300.21541   -776.86655    10639.538    1.0265565 
  269000    692.75837   -3362.1552    661.95156   -4024.1067    749.65235    14742.623   -19524.048    305.04263     24.40177    10639.538    1.0265565 
  270000    695.29018   -3374.5697    645.49255   -4020.0622    747.85456    14749.151   -19525.988    297.45793    44.819521    10639.538    1.0265565 
  271000    698.06305   -3398.5739    635.18744   -4033.7613    771.17184    14708.336    -19523.95     292.7091    314.40921    10639.538    1.0265565 
  272000    700.69826   -3440.7037    643.19278   -4083.8965    793.02843    14644.725   -19526.687    296.39815    259.17366    10639.538    1.0265565 
  273000    703.20461     -3330.19    680.36292    -4010.553    753.23194    14751.173    -19524.92    313.52701    653.47912    10639.538    1.0265565 
  274000    704.91286    -3301.183    687.31233   -3988.4954    718.72406    14811.226   -19526.862    316.72946    30.670043    10639.538    1.0265565 
  275000    707.45424   -3358.9357    647.17527    -4006.111    710.94107     14803.27   -19527.689    298.23337   -833.62083    10639.538    1.0265565 
  276000    710.10218   -3350.1965    658.58282   -4008.7793    764.12405    14744.134   -19525.828    303.49023    554.53864    10639.538    1.0265565 
  277000    712.59823   -3364.1606    640.65454   -4004.8152    766.74743    14744.187   -19524.075    295.22846    843.98817    10639.538    1.0265565 
  278000    714.36703    -3395.076    645.47266   -4040.5487    715.29028    14764.599   -19526.534    297.44877   -827.98914    10639.538    1.0265565 
  279000    716.65181   -3376.5927    626.34998   -4002.9427    772.65449    14740.421   -19523.793    288.63659    743.50498    10639.538    1.0265565 
  280000    719.06582   -3359.9832    649.01465   -4008.9979    771.38378    14734.942   -19524.007      299.081    912.57585    10639.538    1.0265565 
  281000    721.70737   -3370.4225    649.24463   -4019.6671    735.65549    14763.782   -19525.463    299.18698   -195.23405    10639.538    1.0265565 
  282000    724.31514   -3401.9732    600.54741   -4002.5206    822.71361    14696.052   -19529.007    276.74617    1558.0448    10639.538    1.0265565 
  283000    726.31275   -3366.3373    658.99309   -4025.3304    739.91056    14751.283   -19523.783    303.67929   -288.73387    10639.538    1.0265565 
  284000    728.90383   -3385.7027    632.69656   -4018.3993    739.14282     14759.22   -19523.243    291.56124    -77.15408    10639.538    1.0265565 
  285000    731.38496   -3394.3064     641.9846    -4036.291    784.67938    14696.363   -19525.175    295.84139    827.88611    10639.538    1.0265565 
  286000    734.01206   -3404.2639      657.107   -4061.3709    789.31255    14670.013   -19524.324    302.81014    744.11301    10639.538    1.0265565 
  287000    736.51999   -3418.6843    659.85651   -4078.5409    773.51991    14667.037   -19525.482    304.07717    19.170976    10639.538    1.0265565 
  288000    739.13706   -3423.9874    642.27356   -4066.2609    778.98448    14677.693   -19528.271    295.97455    494.44547    10639.538    1.0265565 
  289000    741.75798   -3341.9809    670.59566   -4012.5765    757.02848    14749.845   -19524.765    309.02602    535.61261    10639.538    1.0265565 
  290000    743.69526   -3379.7237    688.26134    -4067.985    821.26554    14631.363   -19525.933    317.16678    1173.6582    10639.538    1.0265565 
  291000     745.7391   -3363.9612    654.47274   -4018.4339    820.22671    14682.407   -19526.974    301.59621    1510.2042    10639.538    1.0265565 
  292000    748.09417    -3344.137    646.88324   -3991.0203    744.63393     14782.18   -19527.156    298.09879     660.2103    10639.538    1.0265565 
  293000    750.70163   -3423.8768    604.01715   -4027.8939    754.33352    14737.472   -19524.597    278.34511    17.177743    10639.538    1.0265565 
  294000    752.37402   -3371.2154    651.40381   -4022.6192    769.80659    14726.472   -19526.462    300.18198    382.45467    10639.538    1.0265565 
  295000    754.94438   -3369.7656    662.35362   -4032.1193    780.60524    14704.062   -19524.691     305.2279    846.41039    10639.538    1.0265565 
  296000    757.63167   -3301.7383    673.77973    -3975.518    752.79281    14789.336   -19523.137    310.49332    347.95293    10639.538    1.0265565 
  297000    760.21743   -3311.4032    698.50219   -4009.9053    759.60868    14745.611   -19525.245      321.886    398.61446    10639.538    1.0265565 
  298000    762.79701   -3402.5765    634.54783   -4037.1243    757.34459    14724.593   -19526.656    292.41435    275.61269    10639.538    1.0265565 
  299000    765.30941   -3371.4408    644.35313   -4015.7939    827.23461    14674.067   -19523.451    296.93286    1870.2534    10639.538    1.0265565 
  300000     767.8715   -3402.7339    670.46051   -4073.1944    823.25278    14625.675   -19527.698    308.96375    945.03046    10639.538    1.0265565 
  301000    770.14838    -3409.202    638.91818   -4048.1202     844.1324    14623.328   -19523.869    294.42831    1683.1578    10639.538    1.0265565 
  302000    772.72167   -3330.2369    667.46005   -3997.6969    748.20073    14773.128   -19526.048    307.58106    343.44879    10639.538    1.0265565 
  303000    775.26284   -3402.1324    620.58946   -4022.7218    701.09681    14794.099   -19525.797    285.98201   -1083.4904    10639.538    1.0265565 
  304000     777.8442   -3392.8527    614.02423   -4006.8769    727.90804    14780.994   -19523.981     282.9566   -111.92448    10639.538    1.0265565 
  305000    780.34215   -3345.3197    674.58892   -4019.9086    713.60894    14786.305   -19525.108    310.86621   -470.97051    10639.538    1.0265565 
  306000    782.91565    -3352.758    654.38145   -4007.1394     727.0039    14785.445   -19524.701    301.55414    -70.76192    10639.538    1.0265565 
  307000    785.45769   -3348.0659    665.75191   -4013.8178    798.75113    14711.507   -19529.004    306.79391    1467.8012    10639.538    1.0265565 
  308000    787.64204   -3371.6932    655.02354   -4026.7167    823.82952    14671.164   -19526.482    301.85003    1589.5836    10639.538    1.0265565 
  309000    789.41226   -3349.1059    660.77582   -4009.8817    763.18252    14747.439   -19527.328    304.50081    604.91922    10639.538    1.0265565 
  310000    791.88898   -3408.0307    638.15687   -4046.1876    808.96005    14666.648   -19526.114    294.07748    928.91753    10639.538    1.0265565 
  311000    794.07932   -3408.8032    635.53666   -4044.3399    769.75319    14705.891   -19526.238    292.87002    366.79846    10639.538    1.0265565 
  312000    796.77663   -3335.2511    652.49108   -3987.7422    789.37934    14742.354   -19526.456    300.68302    1236.4691    10639.538    1.0265565 
  313000    799.51302   -3384.9063    646.86215   -4031.7685    748.27665    14743.023   -19527.741    298.08908    130.41557    10639.538    1.0265565 
  314000    802.24046   -3430.0196    642.24373   -4072.2633     763.8303    14685.131   -19526.826     295.9608   -13.348546    10639.538    1.0265565 
  315000     804.9813   -3399.8998    623.64196   -4023.5417    790.74166    14704.547   -19524.506    287.38867     801.3807    10639.538    1.0265565 
  316000    807.76371   -3336.7917     648.0289   -3984.8206    770.29235    14767.021   -19525.986    298.62674    788.31194    10639.538    1.0265565 
  317000    810.59672   -3325.6885     670.3351   -3996.0236    726.84891    14792.963   -19522.952    308.90595   -36.441154    10639.538    1.0265565 
  318000    813.23064   -3341.9094    647.51552    -3989.425    751.88751    14775.876   -19522.874    298.39016    281.78058    10639.538    1.0265565 
  319000    815.83819   -3404.9313     632.5863   -4037.5176     794.0739    14687.455   -19525.687    291.51043    781.50394    10639.538    1.0265565 
  320000    818.56005   -3368.1272    640.97792   -4009.1051    739.99435     14770.89    -19525.42    295.37749      131.199    10639.538    1.0265565 
  321000    821.17311   -3473.0099    615.94703   -4088.9569    825.62362    14603.841   -19523.901    283.84267    1213.7762    10639.538    1.0265565 
  322000    823.85787    -3373.772    652.65409    -4026.426    759.07028    14736.632    -19526.49    300.75813    90.765187    10639.538    1.0265565 
  323000     826.5114   -3447.9679    619.51239   -4067.4803    775.57891    14675.438   -19525.509    285.48567    491.64343    10639.538    1.0265565 
  324000    829.20318   -3365.6805    648.02984   -4013.7104     793.5655    14713.773   -19526.565    298.62718    1216.5232    10639.538    1.0265565 
  325000    831.91308   -3437.0037    620.90765   -4057.9113    787.20949    14679.255    -19528.38    286.12864    342.58707    10639.538    1.0265565 
  326000     834.5296   -3413.1722      680.721   -4093.8932    814.77978    14611.723   -19524.394    313.69202    883.79434    10639.538    1.0265565 
  327000    837.20884   -3423.1385    640.17664   -4063.3151    807.28229     14650.85   -19527.075    295.00824    1140.0022    10639.538    1.0265565 
  328000    839.91899   -3345.8658    660.54049   -4006.4063    787.71823    14726.398   -19523.523    304.39237    994.86769    10639.538    1.0265565 
  329000    842.61142   -3390.6787    665.21485   -4055.8935    795.87219    14670.682   -19526.087    306.54642      737.471    10639.538    1.0265565 
  330000    845.32507   -3400.0624    643.54505   -4043.6074    826.56969    14648.515   -19524.874    296.56048    1781.8353    10639.538    1.0265565 
  331000    848.04197   -3373.1283    655.74525   -4028.8735    838.07422    14648.981   -19523.833    302.18261    1800.0992    10639.538    1.0265565 
  332000    850.77186   -3285.4618    667.67939   -3953.1412    754.54406    14809.896   -19525.336    307.68214    900.20412    10639.538    1.0265565 
  333000    853.43955   -3329.1826    665.69097   -3994.8735    707.60409    14816.868   -19526.288    306.76583   -80.395001    10639.538    1.0265565 
  334000    856.14607   -3390.9226    645.94423   -4036.8669    726.94774    14757.066   -19525.824    297.66608   -287.43087    10639.538    1.0265565 
  335000    858.87341   -3393.7548    653.17825    -4046.933     732.2838    14743.477   -19526.918    300.99968   -401.54764    10639.538    1.0265565 
  336000     861.6181    -3419.014    634.90065   -4053.9147    785.28816    14677.005   -19521.585    292.57694    558.07348    10639.538    1.0265565 
  337000    864.45641   -3390.9315     642.9677   -4033.8992    699.37195    14785.318   -19525.514    296.29442   -1022.2006    10639.538    1.0265565 
  338000    867.25481   -3400.7701     663.1046   -4063.8747    771.44836    14684.037   -19526.695    305.57397    261.06529    10639.538    1.0265565 
  339000    870.04213   -3441.0014    597.57471   -4038.5761    837.02776    14645.899   -19524.867    275.37628    1606.2864    10639.538    1.0265565 
  340000    872.84278   -3364.2845     661.9412   -4026.2257    749.84119     14742.45   -19525.109    305.03785    120.99513    10639.538    1.0265565 
  341000     875.6849   -3384.2196    652.05742    -4036.277    792.46994    14691.381   -19526.402    300.48317    853.27046    10639.538    1.0265565 
  342000    878.61694   -3336.0855    660.73478   -3996.8203    705.50715    14816.676   -19524.673    304.48191   -553.34634    10639.538    1.0265565 
  343000    881.39944   -3400.7927     626.3084   -4027.1011    763.81764    14727.286   -19523.544    288.61743    236.96788    10639.538    1.0265565 
  344000    884.15591   -3391.1809    642.71024   -4033.8911    845.36038    14636.696   -19527.265    296.17578    2151.7862    10639.538    1.0265565 
  345000    886.91847    -3396.902    623.02471   -4019.9267    826.15534    14672.196   -19525.478    287.10423    1417.5488    10639.538    1.0265565 
  346000    889.67873   -3369.6368    617.98532   -3987.6221    756.54855    14773.913   -19523.563    284.78196    712.81989    10639.538    1.0265565 
  347000    892.42012   -3374.8561    641.85711   -4016.7132     686.2988     14813.08   -19523.722    295.78263   -1078.2886    10639.538    1.0265565 
  348000    895.12485   -3402.5536    656.90265   -4059.4563    770.48866    14688.502   -19524.347    302.71597    311.81255    10639.538    1.0265565 
  349000    897.86005   -3399.7581    658.53312   -4058.2912    814.02384    14648.496   -19527.634    303.46733    1045.0751    10639.538    1.0265565 
  350000    900.63739   -3392.6036    660.46817   -4053.0718    732.41971    14732.444   -19522.956    304.35904   -520.90371    10639.538    1.0265565 
  351000    903.56524   -3429.5762    644.43787   -4074.0141    730.76372    14717.334   -19529.236    296.97191   -1020.5471    10639.538    1.0265565 
  352000    906.29235   -3374.5297    658.32932    -4032.859    760.31087     14722.42   -19522.837    303.37341    17.392721    10639.538    1.0265565 
  353000     909.1103   -3416.4112    674.93257   -4091.3437    791.21731    14639.736   -19526.328    311.02458    455.05503    10639.538    1.0265565 
  354000    911.80243   -3413.1387     642.0609   -4055.1996    795.58294    14671.041   -19527.354    295.87655    675.02744    10639.538    1.0265565 
  355000    914.40851   -3421.3607    645.66777   -4067.0285     793.5374    14656.552   -19525.078    297.53868    411.76372    10639.538    1.0265565 
  356000    917.09762   -3365.2574     672.8502   -4038.1076    771.60485    14711.841   -19527.164    310.06497    361.57513    10639.538    1.0265565 
  357000    919.79515   -3329.8772    679.65328   -4009.5305    783.64934    14724.516   -19523.744    313.19999    1426.7898    10639.538    1.0265565 
  358000     922.5334   -3398.5545    652.28983   -4050.8443    775.01378    14697.388   -19527.627    300.59028    300.46286    10639.538    1.0265565 
  359000    925.33581    -3370.856    647.79241   -4018.6484    819.14374    14679.872   -19527.104    298.51776    1310.2356    10639.538    1.0265565 
  360000    928.04206    -3404.475    640.36879   -4044.8438    749.91723    14724.166   -19527.332    295.09678   -32.533897    10639.538    1.0265565 
  361000    930.87228   -3406.1606    651.10838   -4057.2689    846.08979    14612.392   -19522.375    300.04583    1571.8071    10639.538    1.0265565 
  362000    933.09215   -3414.2279    659.58069   -4073.8085    772.09446    14672.118   -19526.623    303.95007    -16.62443    10639.538    1.0265565 
  363000    935.67143   -3349.9942    644.58005   -3994.5742    836.48072    14681.714   -19523.465    297.03743    2385.8603    10639.538    1.0265565 
  364000    938.40991   -3329.9723    659.71057   -3989.6829    780.16793    14747.201   -19526.927    304.00992    1013.9165    10639.538    1.0265565 
  365000    941.00844   -3391.1442    648.76949   -4039.9137    785.96672    14690.925   -19525.971    298.96802    609.01814    10639.538    1.0265565 
  366000    943.67175    -3360.257    668.34777   -4028.6048    763.19473    14724.058   -19525.357    307.99015    433.17115    10639.538    1.0265565 
  367000    946.30393   -3395.5634    674.28629   -4069.8497    758.90876    14691.787   -19528.241    310.72676    -192.6267    10639.538    1.0265565 
  368000    949.13143   -3395.1744    672.54597   -4067.7204    759.06401    14695.974   -19527.379    309.92478   -8.5869058    10639.538    1.0265565 
  369000    951.97496   -3350.1283    671.84763    -4021.976    799.77839     14694.39   -19525.148    309.60296    1295.0958    10639.538    1.0265565 
  370000    954.62644   -3386.4421     608.7687   -3995.2108    745.28055    14772.233    -19524.78    280.53473   -78.637705    10639.538    1.0265565 
  371000    957.27639   -3329.3057    668.19952   -3997.5052    755.83981    14761.916   -19525.163    307.92183    426.41541    10639.538    1.0265565 
  372000     959.4953   -3371.1221    665.02963   -4036.1517    803.92179    14679.187   -19527.696    306.46107    1171.2665    10639.538    1.0265565 
  373000    961.44051   -3404.0966    651.57821   -4055.6748    744.19902     14717.89   -19525.615    300.26234     8.160068    10639.538    1.0265565 
  374000    963.99721    -3395.186    651.99122   -4047.1773    806.16355    14662.429   -19525.185    300.45267    787.87304    10639.538    1.0265565 
  375000    966.62498   -3362.2676    670.46672   -4032.7343    767.08122    14715.707   -19525.849    308.96661    355.29302    10639.538    1.0265565 
  376000    969.25461   -3343.1567    675.60174   -4018.7585    767.23284    14730.468   -19527.725    311.33294    676.36745    10639.538    1.0265565 
  377000    971.90958   -3380.5562    658.11018   -4038.6664    807.69916    14670.476   -19524.965    303.27243    922.40503    10639.538    1.0265565 
  378000    974.52826   -3390.2016    645.98125   -4036.1829    817.41228    14665.384   -19523.886    297.68313    1305.9242    10639.538    1.0265565 
  379000    977.23869   -3391.3539    683.45288   -4074.8068    815.62095     14627.41    -19527.17    314.95093    1377.7375    10639.538    1.0265565 
  380000    979.91901   -3387.4188    644.49588   -4031.9146    796.69573    14693.313   -19527.365    296.99864    864.63405    10639.538    1.0265565 
  381000    982.48541   -3311.4423    659.99306   -3971.4353     771.0328    14775.028   -19524.475     304.1401     1090.591    10639.538    1.0265565 
  382000    985.17095   -3410.6323    649.22829   -4059.8606    802.87958    14655.647   -19527.464    299.17944    873.53823    10639.538    1.0265565 
  383000    987.48383   -3479.5808    596.42952   -4076.0103    761.72908     14682.76   -19526.584    274.84855   -357.36332    10639.538    1.0265565 
  384000    990.15414    -3373.688    656.88694    -4030.575    775.94199    14707.448   -19523.743    302.70873    445.35984    10639.538    1.0265565 
  385000    992.87203   -3395.1537    641.00451   -4036.1582    799.02705    14681.722   -19523.837    295.38974    983.70261    10639.538    1.0265565 
  386000    995.02805   -3455.5636     654.9174    -4110.481    788.15048    14623.162   -19527.752    301.80112    -69.59277    10639.538    1.0265565 
  387000    996.70258   -3407.8713    651.94099   -4059.8123    787.67889    14671.376     -19524.8    300.42952    612.76634    10639.538    1.0265565 
  388000    998.98729   -3418.8131    647.95176   -4066.7649    794.59748    14656.992   -19525.669    298.59119    957.95216    10639.538    1.0265565 
  389000    1001.6107   -3359.5268      680.373   -4039.8998    813.31776    14669.021   -19527.346    313.53165    1212.1904    10639.538    1.0265565 
  390000    1004.3437   -3398.7501    624.56517   -4023.3153    814.34641    14679.817   -19526.237    287.81411    1588.9512    10639.538    1.0265565 
  391000    1007.0396   -3378.5104    660.86643   -4039.3769    784.43555    14692.486   -19521.716    304.54257    871.92285    10639.538    1.0265565 
  392000    1009.6995   -3412.3637    653.56973   -4065.9334    805.14986    14649.823   -19527.012    301.18008    666.33805    10639.538    1.0265565 
  393000    1012.4088   -3383.8499    671.22348   -4055.0734    817.98204     14648.19   -19526.027    309.31534    1318.5149    10639.538    1.0265565 
  394000    1015.0661   -3383.6612    663.79321   -4047.4544    776.79108    14692.271   -19525.779     305.8913    478.61249    10639.538    1.0265565 
  395000    1017.7473   -3366.8443    658.00248   -4024.8468    753.80658    14737.737   -19522.384    303.22279    60.421392    10639.538    1.0265565 
  396000    1020.4478   -3382.4851    639.28261   -4021.7677    803.77561    14689.836   -19524.913    294.59625     1136.332    10639.538    1.0265565 
  397000    1023.1366   -3390.8548    645.52948   -4036.3842    743.68911    14734.692    -19524.88    297.47495    54.672948    10639.538    1.0265565 
  398000    1025.8787   -3373.2363     630.8313   -4004.0676    726.37131    14787.663   -19526.337    290.70169   -312.22303    10639.538    1.0265565 
  399000     1028.683   -3408.8027    643.44502   -4052.2477    793.76228    14668.579   -19524.468    296.51438    631.74254    10639.538    1.0265565 
  400000    1031.4128   -3402.4448    648.80326   -4051.2481    761.92049    14703.092   -19523.755    298.98358    281.42682    10639.538    1.0265565 
  401000    1034.1436   -3402.0548    668.24893   -4070.3038     779.4159    14670.357   -19526.646     307.9446    258.90237    10639.538    1.0265565 
  402000     1036.888   -3409.3292    636.91181    -4046.241    744.68944    14731.643   -19526.676    293.50373   -383.47474    10639.538    1.0265565 
  403000    1039.7155   -3443.4631    638.95611   -4082.4192    764.26437    14672.123   -19526.797    294.44579    -4.485228    10639.538    1.0265565 
  404000    1042.4869   -3381.2981    695.55312   -4076.8512    773.81506    14668.704   -19527.391      320.527    391.75136    10639.538    1.0265565 
  405000    1045.2086   -3450.0859    634.51023   -4084.5961    801.78266     14628.87   -19523.073    292.39703    570.71157    10639.538    1.0265565 
  406000    1047.9918   -3422.0987    645.31673   -4067.4154    819.37194    14629.455   -19524.703    297.37691    1458.0811    10639.538    1.0265565 
  407000    1050.6625   -3416.0833    632.70743   -4048.7907    763.10952    14708.391   -19525.378    291.56625    298.17646    10639.538    1.0265565 
  408000     1053.363   -3397.7398    642.36965   -4040.1094    796.14734    14678.124   -19523.738    296.01883     584.6061    10639.538    1.0265565 
  409000    1056.0252   -3373.4543    660.44725   -4033.9016    765.03841    14719.778   -19524.197     304.3494    383.06454    10639.538    1.0265565 
  410000    1058.6634    -3371.388    662.90244   -4034.2904    715.27821    14771.663   -19526.361    305.48081   -531.08976    10639.538    1.0265565 
  411000    1061.2343   -3382.0764    641.31642   -4023.3928    827.49184    14664.473   -19524.281    295.53347    1429.9096    10639.538    1.0265565 
  412000    1063.7346   -3363.9691    653.24152   -4017.2106    754.06091    14745.745   -19525.295    301.02884    241.18265    10639.538    1.0265565 
  413000    1066.4765   -3368.2354    673.54653   -4041.7819    778.38546    14697.511   -19525.072    310.38586    453.32387    10639.538    1.0265565 
  414000    1069.1814   -3376.8853    666.55152   -4043.4368    807.98094    14662.964   -19523.228    307.16239    771.01373    10639.538    1.0265565 
  415000    1071.8909   -3394.2485    674.86794   -4069.1164    749.30716    14700.955   -19526.589    310.99479   -60.443496    10639.538    1.0265565 
  416000    1074.5615   -3329.4765    642.79246   -3972.2689    720.80431    14825.985   -19527.821    296.21367    273.22014    10639.538    1.0265565 
  417000     1077.294   -3414.0871    628.46328   -4042.5504    838.19516    14637.316   -19525.417    289.61045    1469.9549    10639.538    1.0265565 
  418000    1079.9421   -3387.6268    630.72066   -4018.3475    795.47044    14708.213   -19527.989     290.6507    1157.5644    10639.538    1.0265565 
  419000    1082.6055    -3383.313    645.80582   -4029.1188    832.97959    14651.714   -19525.251    297.60229    1727.1624    10639.538    1.0265565 
  420000    1085.2369   -3361.5541    661.59836   -4023.1525    761.49521    14733.892   -19524.868    304.87986    164.00026    10639.538    1.0265565 
  421000    1087.8975   -3397.2198    665.75504   -4062.9749    787.86634    14664.359   -19524.558    306.79536    340.98286    10639.538    1.0265565 
  422000    1090.5863    -3379.922    628.97228   -4008.8942    763.62425    14747.031   -19526.134    289.84501       547.58    10639.538    1.0265565 
  423000      1093.25   -3361.3677    651.41389   -4012.7816     742.5528    14758.797       -19526    300.18662    128.12836    10639.538    1.0265565 
  424000     1095.952   -3361.5259    665.20423   -4026.7301    805.49351    14689.114   -19527.659    306.54153    1257.9147    10639.538    1.0265565 
  425000    1098.6654   -3343.7477    671.98779   -4015.7354    745.16496     14755.44   -19525.541    309.66755    582.49639    10639.538    1.0265565 
  426000    1101.3356   -3378.0554    659.61037   -4037.6658    731.80644    14742.754   -19528.171    303.96375   -353.91987    10639.538    1.0265565 
  427000    1104.0466   -3398.5675    630.52152    -4029.089    829.87775    14659.467   -19525.362    290.55893    1628.6663    10639.538    1.0265565 
  428000    1106.7779   -3393.9312    639.82949   -4033.7607    762.26037    14720.873    -19526.25    294.84826     358.2661    10639.538    1.0265565 
  429000    1109.4615   -3312.8134    674.84291   -3987.6563    765.49477    14761.256    -19522.87    310.98326    877.84507    10639.538    1.0265565 
  430000    1112.1266   -3374.7069    638.22687   -4012.9338    777.79082    14729.007   -19527.128    294.10974    403.82896    10639.538    1.0265565 
  431000    1114.8404   -3324.7169    680.74545   -4005.4623    788.56818    14722.641   -19526.903    313.70329     847.4502    10639.538    1.0265565 
  432000    1117.5818   -3330.2782     655.5386   -3985.8168    742.99491    14788.903   -19525.792    302.08739    303.01559    10639.538    1.0265565 
  433000    1120.3466   -3283.8968    672.70734   -3956.6042    762.03875    14799.474   -19524.395    309.99914    931.01366    10639.538    1.0265565 
  434000    1122.9985    -3403.243    610.98795    -4014.231    732.09231    14772.362   -19527.087    281.55741   -331.00268    10639.538    1.0265565 
  435000    1125.6957    -3369.876    651.05527   -4020.9313    774.54808    14723.781   -19524.907    300.02136    694.83832    10639.538    1.0265565 
  436000    1128.4194   -3397.7384    652.04292   -4049.7813    749.17539    14714.101    -19526.26    300.47649    -222.3332    10639.538    1.0265565 
  437000    1131.1321   -3405.1956    652.21166   -4057.4072    785.59594    14675.738   -19525.572    300.55425    367.37433    10639.538    1.0265565 
  438000    1133.8233   -3405.2769    655.20046   -4060.4774    737.84529    14720.058   -19526.706    301.93156   -288.76126    10639.538    1.0265565 
  439000    1136.5233    -3380.934    662.57798   -4043.5119    838.84432    14636.181   -19525.701    305.33129    1713.0793    10639.538    1.0265565 
  440000    1139.2122   -3344.1666    695.15508   -4039.3216    789.50763    14683.436   -19522.584    320.34358    491.54379    10639.538    1.0265565 
  441000    1141.9081   -3417.9231    641.60014   -4059.5233    806.55285    14651.362   -19526.021    295.66422    939.64912    10639.538    1.0265565 
  442000       1144.6   -3446.1327    636.49174   -4082.6245     792.0784    14644.523    -19527.53    293.31015    506.78058    10639.538    1.0265565 
  443000    1147.3392   -3396.1692    646.63243   -4042.8016     807.0005    14664.405    -19525.85    297.98321    711.72688    10639.538    1.0265565 
  444000    1150.0416   -3373.8351    609.61476   -3983.4499    740.48867    14790.111   -19522.324    280.92461    259.07514    10639.538    1.0265565 
  445000    1152.7643   -3347.1891    647.47174   -3994.6609    783.57539    14736.433   -19521.874    298.36999    1450.9714    10639.538    1.0265565 
  446000     1155.561   -3392.2469     642.7116   -4034.9585      756.399    14727.086   -19526.719    296.17641    200.76955    10639.538    1.0265565 
  447000    1158.2128   -3348.8878    655.05589   -4003.9437     743.1077    14770.165   -19525.025    301.86494   -239.11573    10639.538    1.0265565 
  448000     1160.874   -3335.4692    666.53426   -4002.0035    790.85318    14724.899   -19525.283    307.15444    1186.6618    10639.538    1.0265565 
  449000    1162.5445   -3369.5072    633.21684    -4002.724    769.22089    14743.106   -19524.679      291.801    539.24792    10639.538    1.0265565 
  450000    1164.2084   -3345.6321    657.57766   -4003.2098    694.79375     14821.74   -19525.972    303.02703   -724.83704    10639.538    1.0265565 
  451000    1166.7747   -3374.6266    649.50266   -4024.1292    839.32966    14652.412   -19526.685    299.30588    1767.9996    10639.538    1.0265565 
  452000    1169.5961    -3355.361    646.94038   -4002.3014    710.88751    14797.089   -19522.741    298.12513   -542.65406    10639.538    1.0265565 
  453000    1172.3665   -3400.5079    639.12976   -4039.6377    794.13741    14678.311   -19526.945    294.52581    503.27764    10639.538    1.0265565 
  454000    1175.0866   -3360.2928    634.58254   -3994.8754    841.08991    14677.017   -19523.476    292.43035    1929.4146    10639.538    1.0265565 
  455000    1177.8159   -3311.1379     682.2231    -3993.361    738.54309    14781.466   -19524.935    314.38422    382.94168    10639.538    1.0265565 
  456000    1180.5011   -3412.5035    643.67832   -4056.1818     831.0573    14630.182   -19522.902    296.62189     1214.716    10639.538    1.0265565 
  457000    1183.2194   -3436.6827    655.60198   -4092.2846    844.28984    14578.904   -19522.193    302.11659    1091.9715    10639.538    1.0265565 
  458000    1185.8489     -3387.51    653.38042   -4040.8904    742.78465    14733.753   -19525.916    301.09285      75.3202    10639.538    1.0265565 
  459000     1188.572   -3340.9363    675.93676   -4016.8731    776.47151     14721.04   -19524.876    311.48733    967.82257    10639.538    1.0265565 
  460000    1191.2599    -3340.313    671.48711   -4011.8001    775.32682    14728.223   -19524.812    309.43683    530.34582    10639.538    1.0265565 
  461000    1193.9845   -3359.5611    670.87042   -4030.4315    703.77627     14786.56   -19525.916    309.15264   -674.18415    10639.538    1.0265565 
  462000     1196.739   -3411.2862    650.31647   -4061.6027    777.16867     14675.04   -19523.993     299.6809    164.89677    10639.538    1.0265565 
  463000    1199.5111   -3360.1686    684.88159   -4045.0502     760.5231    14713.231   -19524.858    315.60931   -94.408574    10639.538    1.0265565 
  464000    1202.2161   -3386.9776    636.32925   -4023.3068    768.25296    14727.964   -19525.399    293.23527    640.05007    10639.538    1.0265565 
  465000    1204.6369   -3459.6779    655.97645   -4115.6543    829.97465    14574.093   -19527.892    302.28916    1246.7583    10639.538    1.0265565 
  466000    1207.0382   -3369.5088    704.89991   -4074.4087    798.82105    14643.581   -19525.767    324.83422    721.09165    10639.538    1.0265565 
  467000    1209.8388   -3445.4704    635.89649   -4081.3669     804.6257    14629.626   -19523.747    293.03585    553.20582    10639.538    1.0265565 
  468000     1212.513   -3386.6045    638.37975   -4024.9843    780.26052    14710.784   -19523.025    294.18019    653.79582    10639.538    1.0265565 
  469000    1215.1815   -3410.3507    677.06203   -4087.4127    792.87805     14642.39   -19526.729    312.00588    466.00143    10639.538    1.0265565 
  470000    1217.8497   -3388.2603    635.45218   -4023.7124    832.08568    14665.575   -19526.939     292.8311    1554.0435    10639.538    1.0265565 
  471000    1219.8768   -3404.3478    639.70183   -4044.0497    769.54871    14704.164    -19524.36    294.78943    414.49949    10639.538    1.0265565 
  472000    1221.7567   -3412.8475    645.01806   -4057.8656    793.09009    14667.573   -19523.339    297.23927    605.54224    10639.538    1.0265565 
  473000    1224.4471   -3359.5351    675.67061   -4035.2057    800.36206    14681.389   -19523.562    311.36468    945.32236    10639.538    1.0265565 
  474000     1226.739   -3417.2053    662.17176    -4079.377    780.65557    14660.203   -19525.171     305.1441    427.83387    10639.538    1.0265565 
  475000    1229.4616   -3367.8183    662.99939   -4030.8177    742.62425     14743.98   -19526.294    305.52549   -320.36761    10639.538    1.0265565 
  476000    1232.1373   -3387.9887    666.85094   -4054.8397    793.08948    14671.181   -19525.541    307.30037    655.94078    10639.538    1.0265565 
  477000    1234.7676   -3408.8083    620.23963    -4029.048     824.6931    14664.873   -19524.607     285.8208    1208.4684    10639.538    1.0265565 
  478000    1237.1581   -3354.4346    668.20442    -4022.639     778.3753    14716.366   -19525.168    307.92409    384.21846    10639.538    1.0265565 
  479000    1239.6541   -3413.8106    681.22039    -4095.031    782.48199    14643.469   -19527.271    313.92215    135.62132    10639.538    1.0265565 
  480000    1242.1982   -3401.8052    630.74596   -4032.5511    804.30088    14683.812   -19527.165    290.66236    1196.2377    10639.538    1.0265565 
  481000    1244.6926   -3362.9927    674.11278   -4037.1055     781.0387     14698.44   -19526.099     310.6468    326.87373    10639.538    1.0265565 
  482000    1246.3403   -3386.8508     648.3913   -4035.2421    817.27659    14664.278   -19527.279    298.79374    1023.4811    10639.538    1.0265565 
  483000    1248.5022   -3329.1708    643.19844   -3972.3692     784.5872    14757.566   -19524.288    296.40075    1268.6505    10639.538    1.0265565 
  484000    1251.1315   -3380.0256    643.96409   -4023.9897    799.46607    14695.035   -19525.635    296.75358    1189.3236    10639.538    1.0265565 
  485000    1253.8401    -3405.867    644.74752   -4050.6146    858.28163    14604.973   -19521.369     297.1146    2159.9916    10639.538    1.0265565 
  486000    1256.5506   -3411.3815    648.87548    -4060.257    815.66913    14640.973   -19523.844    299.01686    1415.2985    10639.538    1.0265565 
  487000    1259.2426   -3405.9256    602.94129   -4008.8669    712.81579    14796.051   -19525.911    277.84932   -628.12772    10639.538    1.0265565 
  488000    1261.9614   -3454.2703    627.31799   -4081.5883    726.92846    14707.297   -19523.227    289.08267   -1022.6864    10639.538    1.0265565 
  489000    1264.6655   -3413.5062    615.05924   -4028.5655    760.39823    14732.349   -19525.707    283.43356    260.75689    10639.538    1.0265565 
  490000    1267.3524   -3401.4934    674.81226   -4076.3056    822.85108    14624.026   -19528.161    310.96913    1152.2172    10639.538    1.0265565 
  491000    1270.0283   -3361.4052    661.93732   -4023.3425     734.7952    14759.743   -19528.032    305.03606   -151.55868    10639.538    1.0265565 
  492000    1272.7907   -3349.6241    654.51842   -4004.1425    734.51915    14780.697     -19526.7    301.61726    6.3946976    10639.538    1.0265565 
  493000    1275.5215   -3330.5851    658.39164   -3988.9767     752.1748    14779.398   -19526.163    303.40213    496.47386    10639.538    1.0265565 
  494000    1278.2445   -3336.5102    649.77232   -3986.2825    782.34351    14752.257   -19527.335    299.43015    1034.0107    10639.538    1.0265565 
  495000     1280.418   -3328.6491    638.26242   -3966.9115     740.6229    14812.192   -19524.072    294.12612    304.87682    10639.538    1.0265565 
  496000    1282.1825   -3363.1016     649.1262   -4012.2278    752.71881    14752.009   -19525.494     299.1324     312.7941    10639.538    1.0265565 
  497000    1284.8717   -3402.8304    627.45153   -4030.2819     788.4971    14703.325   -19526.303    289.14421    1021.3167    10639.538    1.0265565 
  498000     1287.623   -3365.7262    650.65787    -4016.384    796.89937    14706.694   -19525.663    299.83823    1175.4544    10639.538    1.0265565 
  499000    1290.3914   -3404.2959    632.16529   -4036.4612    807.86409    14677.334   -19526.407    291.31642    976.25608    10639.538    1.0265565 
  500000    1293.1313   -3323.2228    670.09598   -3993.3188    828.12519    14697.624   -19523.988    308.79576    1972.7006    10639.538    1.0265565 
Loop time of 1293.13 on 12 procs for 500000 steps with 1089 atoms

Performance: 33.407 ns/day, 0.718 hours/ns, 386.658 timesteps/s
92.9% CPU use with 12 MPI tasks x 1 OpenMP threads

MPI task timing breakdown:
Section |  min time  |  avg time  |  max time  |%varavg| %total
---------------------------------------------------------------
Pair    | 591.52     | 655.55     | 743.52     | 160.8 | 50.69
Bond    | 0.18405    | 0.47277    | 1.2806     |  48.9 |  0.04
Kspace  | 247.66     | 334.37     | 395.83     | 219.3 | 25.86
Neigh   | 51.914     | 52.013     | 52.143     |   1.0 |  4.02
Comm    | 135.24     | 137.48     | 140.12     |  13.7 | 10.63
Output  | 0.08753    | 0.093122   | 0.093741   |   0.6 |  0.01
Modify  | 90.987     | 92.158     | 93.08      |   7.3 |  7.13
Other   |            | 20.99      |            |       |  1.62

Nlocal:        90.7500 ave          99 max          85 min
Histogram: 4 1 0 1 0 2 2 1 0 1
Nghost:        3831.50 ave        3885 max        3787 min
Histogram: 1 3 0 1 2 2 0 1 1 1
Neighs:        33067.3 ave       36833 max       28064 min
Histogram: 1 0 1 1 2 1 2 2 0 2

Total # of neighbors = 396808
Ave neighs/atom = 364.37833
Ave special neighs/atom = 2.0495868
Neighbor list builds = 20585
Dangerous builds = 0

# write_restart restart.*.lmp
write_data data.*.lmp
System init for write_data ...
PPPM initialization ...
  using 12-bit tables for long-range coulomb (src/lammps/src/kspace.cpp:339)
  G vector (1/distance) = 0.26835398
  grid = 12 12 12
  stencil order = 5
  estimated absolute RMS force accuracy = 0.025279937
  estimated relative force accuracy = 7.6129779e-05
  using double precision FFTW3
  3d grid and FFT values/proc = 1859 144
Neighbor list info ...
  update every 1 steps, delay 10 steps, check yes
  max neighbors/atom: 2000, page size: 100000
  master list distance cutoff = 12
  ghost atom cutoff = 12
  binsize = 6, bins = 4 4 4
  3 neighbor lists, perpetual/occasional/extra = 3 0 0
  (1) pair lj/cut/coul/long, perpetual, skip from (3)
      attributes: half, newton on
      pair build: skip
      stencil: none
      bin: none
  (2) pair lj/cut/coul/long/soft, perpetual, skip from (3)
      attributes: half, newton on
      pair build: skip
      stencil: none
      bin: none
  (3) neighbor class addition, perpetual
      attributes: half, newton on
      pair build: half/bin/newton
      stencil: half/bin/3d/newton
      bin: standard
Total wall time: 0:31:14
