LAMMPS (24 Dec 2020)
OMP_NUM_THREADS environment is not set. Defaulting to 1 thread. (src/lammps/src/comm.cpp:94)
  using 1 OpenMP thread(s) per MPI task
# created by fftool

units real
boundary p p p

atom_style full
bond_style harmonic
angle_style harmonic
dihedral_style opls
special_bonds lj/coul 0.0 0.0 0.5

read_data data.1.lmp
Reading data file ...
  orthogonal box = (-13.443762 -13.443762 -13.443762) to (13.443762 13.443762 13.443762)
  2 by 2 by 3 MPI processor grid
  reading atoms ...
  1090 atoms
  scanning bonds ...
  1 = max bonds/atom
  scanning angles ...
  10 = max angles/atom
  scanning dihedrals ...
  12 = max dihedrals/atom
  reading bonds ...
  729 bonds
  reading angles ...
  377 angles
  reading dihedrals ...
  16 dihedrals
Finding 1-2 1-3 1-4 neighbors ...
  special bond factors lj:    0        0        0.5     
  special bond factors coul:  0        0        0.5     
     5 = max # of 1-2 neighbors
     4 = max # of 1-3 neighbors
     8 = max # of 1-4 neighbors
     9 = max # of special neighbors
  special bonds CPU = 0.001 seconds
  read_data CPU = 0.016 seconds
# read_restart restart.*.lmp
# reset_timestep 0

pair_style hybrid lj/cut/coul/long 10.0 10.0   lj/cut/coul/long/soft 1 0.5 10.0 10.0 10.0
pair_modify tail no
kspace_style pppm 1.0e-5

# use pair soft for atoms that may overlap
# zero epsilon between appearing and desappearing sites: 2-5 3-5
pair_coeff    1    1 lj/cut/coul/long     0.065999     3.500000  # CO-C CO-C
pair_coeff    1    2 lj/cut/coul/long     0.065999     3.500000  # CO-C CD-
pair_coeff    1    3 lj/cut/coul/long     0.044497     2.958040  # CO-C HD-
pair_coeff    1    4 lj/cut/coul/long     0.044497     2.958040  # CO-C H1-H
pair_coeff    1    5 lj/cut/coul/long     0.105924     3.304542  # CO-C OH-D
pair_coeff    1    6 lj/cut/coul/long     0.000000     1.870829  # CO-C HO-D
pair_coeff    1    7 lj/cut/coul/long     0.000000     1.870829  # CO-C Hw
pair_coeff    1    8 lj/cut/coul/long     0.101281     3.328551  # CO-C Ow
pair_coeff    2    2 lj/cut/coul/long     0.065999     3.500000  # CD- CD-
pair_coeff    2    3 lj/cut/coul/long     0.044497     2.958040  # CD- HD-
pair_coeff    2    4 lj/cut/coul/long     0.044497     2.958040  # CD- H1-H
pair_coeff    2    5 lj/cut/coul/long     0.000000     3.304542  # CD- OH-D
pair_coeff    2    6 lj/cut/coul/long     0.000000     1.870829  # CD- HO-D
pair_coeff    2    7 lj/cut/coul/long/soft     0.000000     1.870829  0.0  # CD- Hw
pair_coeff    2    8 lj/cut/coul/long/soft     0.101281     3.328551  0.0  # CD- Ow
pair_coeff    3    3 lj/cut/coul/long     0.030000     2.500000  # HD- HD-
pair_coeff    3    4 lj/cut/coul/long/soft     0.030000     2.500000  0.0  # HD- H1-H
pair_coeff    3    5 lj/cut/coul/long     0.000000     2.792848  # HD- OH-D
pair_coeff    3    6 lj/cut/coul/long     0.000000     1.581139  # HD- HO-D
pair_coeff    3    7 lj/cut/coul/long/soft     0.000000     1.581139  0.0  # HD- Hw
pair_coeff    3    8 lj/cut/coul/long/soft     0.068284     2.813139  0.0  # HD- Ow
pair_coeff    4    4 lj/cut/coul/long     0.030000     2.500000  # H1-H H1-H
pair_coeff    4    5 lj/cut/coul/long     0.071414     2.792848  # H1-H OH-D
pair_coeff    4    6 lj/cut/coul/long/soft     0.000000     1.581139  1.0  # H1-H HO-D
pair_coeff    4    7 lj/cut/coul/long     0.000000     1.581139  # H1-H Hw
pair_coeff    4    8 lj/cut/coul/long     0.068284     2.813139  # H1-H Ow
pair_coeff    5    5 lj/cut/coul/long     0.170000     3.120000  # OH-D OH-D
pair_coeff    5    6 lj/cut/coul/long     0.000000     1.766352  # OH-D HO-D
pair_coeff    5    7 lj/cut/coul/long/soft     0.000000     1.766352  1.0  # OH-D Hw
pair_coeff    5    8 lj/cut/coul/long/soft     0.162549     3.142668  1.0  # OH-D Ow
pair_coeff    6    6 lj/cut/coul/long     0.000000     1.000000  # HO-D HO-D
pair_coeff    6    7 lj/cut/coul/long/soft     0.000000     1.000000  1.0  # HO-D Hw
pair_coeff    6    8 lj/cut/coul/long/soft     0.000000     1.779185  1.0  # HO-D Ow
pair_coeff    7    7 lj/cut/coul/long     0.000000     1.000000  # Hw Hw
pair_coeff    7    8 lj/cut/coul/long     0.000000     1.779185  # Hw Ow
pair_coeff    8    8 lj/cut/coul/long     0.155425     3.165500  # Ow Ow

variable TK equal 300.0
variable PBAR equal 1.0

neighbor 2.0 bin

timestep 1.0

velocity all create ${TK} 12345
velocity all create 300 12345

fix SHAKE all shake 0.0001 20 0 b 2 4 5 a 6
       1 = # of size 2 clusters
       0 = # of size 3 clusters
       2 = # of size 4 clusters
     360 = # of frozen angles
  find clusters CPU = 0.001 seconds

fix NPT all npt temp ${TK} ${TK} 100 iso ${PBAR} ${PBAR} 500
fix NPT all npt temp 300 ${TK} 100 iso ${PBAR} ${PBAR} 500
fix NPT all npt temp 300 300 100 iso ${PBAR} ${PBAR} 500
fix NPT all npt temp 300 300 100 iso 1 ${PBAR} 500
fix NPT all npt temp 300 300 100 iso 1 1 500

thermo_style custom step cpu epair emol etotal temp press density
thermo 1000

run 200000
PPPM initialization ...
  using 12-bit tables for long-range coulomb (src/lammps/src/kspace.cpp:339)
  G vector (1/distance) = 0.30693002
  grid = 24 24 24
  stencil order = 5
  estimated absolute RMS force accuracy = 0.0020339166
  estimated relative force accuracy = 6.1250794e-06
  using double precision FFTW3
  3d grid and FFT values/proc = 5415 1152
Neighbor list info ...
  update every 1 steps, delay 10 steps, check yes
  max neighbors/atom: 2000, page size: 100000
  master list distance cutoff = 12
  ghost atom cutoff = 12
  binsize = 6, bins = 5 5 5
  3 neighbor lists, perpetual/occasional/extra = 3 0 0
  (1) pair lj/cut/coul/long, perpetual, skip from (3)
      attributes: half, newton on
      pair build: skip
      stencil: none
      bin: none
  (2) pair lj/cut/coul/long/soft, perpetual, skip from (3)
      attributes: half, newton on
      pair build: skip
      stencil: none
      bin: none
  (3) neighbor class addition, perpetual
      attributes: half, newton on
      pair build: half/bin/newton
      stencil: half/bin/3d/newton
      bin: standard
Per MPI rank memory allocation (min/avg/max) = 15.89 | 15.91 | 16.08 Mbytes
Step CPU E_pair E_mol TotEng Temp Press Density 
       0            0   -229.48168   0.30946681    744.65843    449.58716    1838.1136    0.5580518 
    1000    2.8635947   -3742.9697    4.1903612   -3131.1604    280.51866   -112.99056   0.79154688 
    2000    6.6438658   -3919.6785     1.665933    -3276.745     296.0532   -49.647788   0.92073328 
    3000    10.685247   -3913.4898    2.4666481   -3245.8596    307.08522   -160.80971   0.94075288 
    4000    14.698692   -3978.9787    1.1776298   -3337.7812    295.47715    -824.7169   0.96807018 
    5000    18.457057   -3967.7744    3.7809107   -3308.8039    302.48054   -964.05949   0.97227906 
    6000    22.503941   -4047.7752     1.594901   -3389.3146    303.25435   -1278.0647   0.98603209 
    7000    26.570565   -3993.1667    3.0880389   -3316.8457     310.8106   -455.24243   0.97147072 
    8000    30.646808   -4029.6615    3.1283629   -3377.0232     299.8584    599.37366     1.003459 
    9000    33.825208   -3982.1444    5.4935438   -3319.9224    303.19103    1164.2977   0.99353511 
   10000    37.430023    -4019.084    4.5105694   -3361.7759     301.3762    183.41983   0.98361155 
   11000    41.600513   -3967.5952    6.3519318    -3298.588    305.92723    928.47152   0.97766946 
   12000    44.796388   -3955.2285    4.6921094   -3317.1316    292.42321   -117.32819    0.9774732 
   13000    48.842096   -4003.6932    5.4484768   -3351.2146    298.71356    812.36359   0.99476135 
   14000    53.021301   -4066.9878    2.7884927   -3402.7388    305.37563    -1417.498   0.98368431 
   15000    57.184649   -3989.7862    3.6901723   -3361.1978      288.496    551.14017    0.9917307 
   16000    61.385659   -4029.2088    2.9568724   -3384.2768    296.37986   -207.73623   0.99521325 
   17000     65.53381   -4001.6369    4.7184616   -3348.8013    299.21543   -560.90868   0.98425454 
   18000    69.637491      -4022.1    3.5042289   -3380.2247    294.71598   -611.44361   0.98551984 
   19000    73.692434   -3961.1642    4.0239288   -3333.6832    287.83062    353.23625     1.004089 
   20000    77.784288   -3998.2691    2.1683645   -3349.7721    298.38971    747.07733    1.0114919 
   21000     81.84531   -4009.5195    3.9902695   -3377.5894    289.90019    489.91691   0.97849387 
   22000    85.939599   -4014.5739    2.3939699   -3350.2788    305.57906    55.419974   0.99440238 
   23000    90.051628   -3955.0637    2.2199616   -3323.1172    290.72505   -7.7721815   0.98549425 
   24000    94.158115   -4000.9992    4.2525396   -3349.4193    298.85076   -273.69111   0.97238823 
   25000    98.332118   -3968.5132     2.618385   -3332.6765    292.33709   -727.53277   0.98858339 
   26000    102.35147   -3974.7329    1.9638732   -3332.4172    295.63044    133.26429   0.99729161 
   27000    106.30449   -3998.7265    2.9638963   -3327.0599    308.71915    407.46885   0.99982483 
   28000    110.33266   -4075.9749    2.8311813   -3409.3656    306.44557    1198.5767   0.99704031 
   29000    114.38447   -4041.8613    3.8436815   -3375.6544     305.7924   -1128.6668   0.98058112 
   30000    118.45367   -4002.9956    4.4017189   -3351.7294    298.63712   -854.07475    1.0067934 
   31000    122.61847   -4033.9087    4.5250854   -3384.1922    297.86471    395.77851    1.0103305 
   32000    126.68254   -3965.4081    4.0156791   -3329.0493    291.93304   -267.67314    0.9835521 
   33000    130.94387   -3953.6881    4.4350234   -3282.3967    307.86671   -506.65616   0.97764913 
   34000    135.04766   -4016.0271    4.3947682   -3369.5991    296.40667   -865.85103   0.98846683 
   35000    139.18543   -4021.1514    5.8697001   -3358.7499    303.10019    31.812473   0.98434678 
   36000     143.3499   -4003.5175    4.1542949   -3374.7925    288.34474   -777.94357   0.97771379 
   37000    147.41488   -3978.6528    7.1061795   -3283.5338    317.63402   -761.54223   0.97490912 
   38000    151.49432   -4018.1411    6.5882319   -3342.3196    308.96409    84.156492   0.97407768 
   39000    155.54026   -4011.6317    3.3902271    -3354.299    301.90476   -906.55957   0.99082544 
   40000    159.64183   -4012.5811    5.9930279   -3339.7954    307.83733    305.45147   0.97972847 
   41000    163.69911   -3992.3112    4.1520658   -3314.7715    310.88199   -546.12778   0.98712272 
   42000    167.77799    -3960.031    2.7778227   -3290.0697    308.01775   -545.29941   0.98048265 
   43000    171.87227   -3988.9252     5.494048   -3341.6687    296.28167   -36.495683   0.99395939 
   44000    175.91321   -4021.6364    5.6479415   -3366.3707    299.90819    407.29892   0.99221646 
   45000    179.94987   -3990.5212    4.9254755   -3342.5646    296.86736     523.9043   0.97813686 
   46000    184.00582   -4069.1931     6.403044   -3426.3319    293.83283   -1001.2738   0.98191828 
   47000    188.07292   -4010.5904    7.0993696   -3338.7839    306.87449     438.7814    1.0045392 
   48000    192.18584   -3974.9485     7.599357   -3323.2422    297.36402   -486.22321    0.9933134 
   49000    196.24089    -4029.142    5.7293706   -3371.9999     300.7369   -392.25417    0.9710023 
   50000    200.28384   -4004.7525    5.0503603   -3316.5665    315.38237   -1123.6326   0.98138871 
   51000    204.45275   -4060.5366    2.2230199   -3410.8359    298.92022    893.45399    1.0043432 
   52000    208.56767   -3980.4734    5.7778732   -3327.4096    298.83165   -1420.9032    0.9608093 
   53000    212.66796   -4041.0472    5.0985056   -3399.5323    293.81355   -170.32229   0.98231908 
   54000    216.77575   -4003.8757     3.603557   -3354.7695    298.00841   -1500.3171   0.96483957 
   55000    221.03421   -4018.2524    6.4123929   -3349.1742    305.93206   -757.92979   0.99455844 
   56000    225.31873   -3957.7178    6.0980062   -3311.6019    295.47626   -1299.5256   0.98008047 
   57000    229.45995   -3997.5868    6.4199968    -3338.721    301.21384    808.68086    1.0035833 
   58000    233.63202   -4055.4811    4.8428071   -3379.4255    309.87797   -191.79451    0.9873725 
   59000    237.76129   -3991.4693    5.7994039   -3347.2982    294.71623   -22.180122   0.99242371 
   60000    241.84557   -4011.9065    4.3469621   -3377.2441    290.99693   -99.123133   0.97257669 
   61000    245.92346   -3990.4492    2.8782083   -3328.5041     304.2706    1623.0919    1.0023972 
   62000     250.0141   -3976.4006    4.2106118   -3288.8231    315.48911    77.149047   0.98277438 
   63000    254.15326   -3997.6603    6.0549495   -3358.4709    292.29839     50.50191    1.0007851 
   64000    258.07187   -4036.3971    4.8385517   -3401.8233    290.72906   -574.71364   0.98089257 
   65000    260.66346   -4066.1052    4.0078738   -3415.5197    298.50468    -1692.519   0.96635942 
   66000    263.46917   -4072.3889    7.2723162   -3419.3538    298.12852   -1071.2947   0.99777297 
   67000    267.57555   -4064.4874    8.0953829   -3447.5713    281.07348   -571.99949    1.0003352 
   68000    271.60879   -4008.3481    6.5651754   -3347.9788    301.84089   -230.36796   0.99366259 
   69000    275.62091   -4011.9553    3.5618979    -3350.242    303.84794   -477.72502   0.99772976 
   70000    279.77051   -3995.1858    2.3360158   -3363.1671    290.70479    20.917762   0.96489512 
   71000      283.793   -3989.9331    4.4366733    -3277.762    326.73887    410.07547   0.96902518 
   72000    287.87257   -3997.3633    2.6827818   -3341.0307    301.76969   -867.44899   0.97851466 
   73000    292.03171   -4012.1469     4.749055   -3349.9744    303.51186   -202.21927     1.005273 
   74000    296.13319    -4014.645    4.7266022   -3327.5809    315.01388   -703.39296      1.00951 
   75000    298.85374   -3982.0124    7.1728068   -3369.6522     279.3961    -789.0445   0.97632744 
   76000     302.8686   -4007.8537    3.4319516   -3346.9406    303.53851    -597.7502   0.99581166 
   77000    306.88132   -3985.8685    3.9428279   -3328.6205    301.61055    144.37196    0.9932132 
   78000    310.89987   -3986.3643    5.5870761   -3271.5723    327.41775    767.34559    1.0005427 
   79000    314.84021   -3972.7818    5.1754398   -3311.1626    303.05956    1264.9009    1.0175369 
   80000    318.32119   -4027.1912    5.3264589   -3374.3352    298.94418    32.435536    1.0276864 
   81000    320.85633   -4018.2512    3.1202213   -3388.8142    289.15087   -591.24145   0.99332972 
   82000     323.3736   -3936.6973    3.7429947   -3249.7616    315.40872   -623.62782    0.9735415 
   83000    327.28905   -4030.9561    4.4896965   -3382.5799    297.26224   -602.86213   0.99513609 
   84000    330.66287   -4060.7003    3.6968231   -3407.0181    300.07791    226.82996   0.99129385 
   85000     334.1201   -4057.5148    4.3290451   -3422.3967     291.2156    1206.9604    1.0178849 
   86000     338.2687   -4029.1033    5.2946284   -3370.0961    301.79867     59.35593   0.98693309 
   87000    342.35747   -4029.5619    7.9164526    -3392.005    290.68531    719.88243   0.98908534 
   88000    346.45051   -4003.6499    6.8140619    -3366.679    290.92369    1177.3912    1.0055014 
   89000    350.51183   -4057.4512    7.1375223   -3411.6787    294.83783    451.17154   0.99638353 
   90000    354.65813   -4065.4984    5.8718285   -3408.9669    300.38926    19.877259   0.99086045 
   91000     358.7114   -4066.1395    4.8817253   -3422.6574    294.82184    1894.7548    1.0167741 
   92000    362.77562   -4010.8542    6.0448197   -3373.8138    291.31091   -728.10642   0.95794112 
   93000    366.80088   -4072.6945    5.4664136   -3445.1144     287.2104    156.40573   0.99242257 
   94000    370.85389   -4026.3231    5.2200806   -3366.4564    302.22988    63.844513   0.97146024 
   95000    374.95497   -3978.4082    5.1288491   -3323.1337    300.15195    285.43328   0.98960694 
   96000    379.12178   -4001.7349    6.3883218   -3337.9003    303.52237    12.143041   0.98766479 
   97000    383.24297   -3984.0317    3.9387011   -3368.0902    282.54254    456.27081    1.0105955 
   98000    387.32812   -3990.9118    3.5395358   -3319.7901    308.20182    511.24788    1.0176315 
   99000    390.82409   -3974.3536    6.2625947   -3368.6542    276.74121    778.68786    1.0048368 
  100000    393.36177   -4065.9514    7.3400841   -3445.3827    283.10844    -376.8948    1.0100145 
  101000    397.32935   -4024.2646    6.1200466    -3406.036     282.5914    194.42481    1.0004015 
  102000    401.22857   -4001.4725    7.6888202   -3368.1253    288.84689   -97.926641   0.98670353 
  103000    404.29137   -4037.9231    3.8024385   -3355.7575    313.17905   -409.86164   0.96361373 
  104000    407.74887   -4075.0029    4.2624134   -3409.8573    305.10909    393.23615   0.98245617 
  105000    411.26962   -4022.9048    3.8497926   -3380.6544    294.72963    389.41976   0.96963353 
  106000     415.1099   -4029.2692    8.4396044    -3408.733    282.58584    489.58478   0.97102156 
  107000       419.12   -3980.5722    7.8151105   -3299.9229    310.62653    205.10414   0.95166637 
  108000    423.05591   -3957.2979    5.1691821   -3300.8801    300.66113   -2130.7851    0.9838301 
  109000    427.17679   -4011.1099    6.7246266   -3342.9571    305.36069   -699.19382   0.97738107 
  110000    431.20822   -4016.5807    3.9588727   -3378.3752    292.81185   -104.91924   0.98995394 
  111000    435.40481   -4004.8213     3.196094   -3325.2661    312.25383   0.97656657    0.9915946 
  112000    439.27194   -3965.0246    4.6050314   -3317.3511    296.88461    353.61639   0.98235271 
  113000    443.26533    -3970.801    3.1310612   -3325.6359    296.40704   -551.00417   0.99503467 
  114000    447.26469   -3997.7748    6.4473317   -3348.5933    296.73022   -676.36797   0.99136829 
  115000    451.37602   -4042.8149     5.271402   -3385.7325    300.92076   -137.49075    0.9950477 
  116000    455.50056   -4010.3647    5.1997676   -3350.4637    302.25509   -71.719056    0.9878578 
  117000    459.61084   -4030.0349    2.9788658   -3356.3397    309.64877     822.0524    1.0174972 
  118000    463.71057   -3967.2583    4.3647601   -3286.0165    312.49296    -111.5811   0.99342928 
  119000    467.81472   -4020.5612    4.7397237   -3393.4004    287.35233    134.55901    1.0094298 
  120000    471.96638   -4022.6959     5.445041   -3340.0893    312.62431    448.40246   0.98484208 
  121000    476.03503    -4032.977    6.8925182   -3398.5703    289.70369   -267.03168   0.98784393 
  122000    480.11117   -4027.6488    4.1935248   -3318.6641    325.38004   -51.991322    0.9872323 
  123000    484.11575   -3998.9701    4.0559254   -3356.1065    294.91755   -3.0365949   0.98783344 
  124000    488.15366   -3935.7491    2.9332009   -3281.3713    300.75156    990.43745    0.9866344 
  125000    492.18609   -3997.2579    5.5710823    -3325.115    307.73539   -1023.4089   0.97658968 
  126000    496.20805   -4019.2989    4.5499919   -3367.3067    298.90379    349.91549   0.99879841 
  127000    500.28186   -3995.1738    3.3240028   -3337.5869     302.0527    536.49657   0.99751907 
  128000    504.36988   -4037.2586    3.2980794   -3390.5928    297.02274    519.64098   0.99494072 
  129000    508.41797   -3985.9528    3.3431769   -3309.0986    310.93899   -1633.1062   0.99548225 
  130000    512.46482   -3999.5183    6.6114952   -3361.6747    291.42011    476.98292   0.99595174 
  131000     516.5149   -4008.4249    3.0589596   -3401.3041    278.87646   -766.37336   0.97819963 
  132000    520.61875   -4030.0468    3.2660431   -3378.0716    299.48871    580.32971     1.019174 
  133000    524.69633   -4048.5526    6.7225871     -3417.81    288.09052   -372.05741   0.99027746 
  134000     528.7675   -4073.8046    3.6504946   -3436.4681    292.55302   -1043.7414    1.0056374 
  135000    532.81133   -4074.7281    2.7584152   -3366.5706    325.66074     932.7812   0.99435221 
  136000    536.86238   -3993.3074    5.5896238   -3357.6467    290.88408    523.62971   0.98746238 
  137000    540.90977   -4006.9092    3.7656507   -3341.1243    305.63354     1269.692    1.0062903 
  138000    545.02918   -4070.3442    4.3675212    -3393.241      310.581   -215.01383     1.001735 
  139000    549.12386   -4016.0663    2.7981534   -3338.2524    311.63367    319.95181    0.9953744 
  140000    553.14931   -4036.6178    3.5537684   -3393.7588    295.14722    257.44781   0.99649268 
  141000    557.21475   -4005.0497    4.4203951   -3351.2037    299.81948    1037.9541   0.99510832 
  142000    561.26639   -4057.4329    4.7858328   -3415.6611     294.0765    553.32184   0.99617192 
  143000    565.32341   -4012.7577    5.0147215    -3358.945    299.52972   -811.42582   0.99244797 
  144000    569.41254   -4054.8831    3.8754048   -3415.7845    293.26266    80.231938   0.98582293 
  145000    573.46294   -3978.7353    4.0566254   -3284.7343    318.52578    369.52419   0.98579452 
  146000    577.54909   -3982.9158    6.2588697   -3305.2481    309.96844   -180.15791   0.98588006 
  147000    581.63195   -3965.4725    6.7230683   -3320.7625    294.53859    180.71329   0.98386063 
  148000    585.76881   -3976.6124    6.5536315    -3300.808    308.97218   -321.92422   0.98128309 
  149000    590.00346   -4021.1779    4.6788824   -3379.2874    294.18068   -875.50692   0.99374228 
  150000    594.05028   -4035.6115    5.6150436   -3404.9911    288.54545    152.91079   0.99037284 
  151000    598.14067     -3992.53    2.7997644   -3342.7777    298.67776    1620.7446    1.0042766 
  152000    602.23325   -3962.0865    2.1847015   -3330.5613     290.5468    -1900.049   0.97754889 
  153000     606.2612   -4004.1031    3.0611731   -3369.5506    291.53978   -610.23508   0.98171975 
  154000    610.36252   -3998.9629    5.2686188   -3338.2754    302.58641    1379.2485   0.99053811 
  155000    614.38589   -3930.8073    6.0974026   -3250.4099    311.30325    589.49061    0.9656871 
  156000    618.44167   -4025.2216    3.1261296   -3371.6079    300.30979   -520.34228   0.98380651 
  157000    622.45083   -3993.2721    3.6054705    -3349.583    295.50658   -176.83489   0.97738861 
  158000    626.50421   -3958.7863    4.3691624   -3327.9628    289.21437   -756.28553   0.96645046 
  159000    630.59694    -4005.307    7.1922219   -3367.0367    291.34901   -193.35896   0.99926863 
  160000    634.76977   -4021.5239    4.8902893   -3368.3344    299.29946    1509.8075    1.0089163 
  161000    638.86906   -4066.3401    4.6755933   -3414.9856    298.55145   -157.33462   0.98772117 
  162000    642.97276   -3994.4022    5.0543137   -3337.0448    301.14796   -279.24175   0.98159806 
  163000    647.12258   -4029.7375    4.9739138   -3335.7057    318.11648    624.09835   0.97986233 
  164000    651.23178   -4035.3795    3.4708376   -3383.1991    299.48893       59.695   0.98625334 
  165000    655.41304    -3948.534    4.0358997   -3307.1153    294.25975     549.9406   0.98004019 
  166000    659.45649   -4008.3919    4.1005294   -3355.2835    299.62663    1389.9695   0.99243626 
  167000    663.52504   -4026.3288    4.1375137   -3379.7022    296.61714    710.86414     1.008493 
  168000    667.54094   -4024.7776    3.4318655    -3370.998    300.24522    -479.6238     1.001483 
  169000    670.88829   -4037.8224    6.4977905   -3368.3078    306.09414   -666.72262    1.0206385 
  170000    673.71425   -4017.8335    5.9568643   -3374.9161    294.06477    640.76449    1.0124702 
  171000    677.13736   -4048.5908    5.5034177   -3390.7923    301.14424   -657.54951   0.99927575 
  172000    681.20817   -4032.1589    5.7701643   -3385.1111     296.0578    761.41487   0.98967801 
  173000    685.28763   -4100.9941    5.6099668   -3441.5465    301.85636   -137.92357    1.0017159 
  174000     689.4156    -4035.176    4.6691974   -3391.1949    295.15034     189.1311    1.0015235 
  175000    693.57771   -4021.0404    6.5153381   -3374.0438    295.69018   -734.29607   0.96981794 
  176000    697.69419   -4013.8302     5.529758   -3368.2107    295.50941     1008.164    1.0099504 
  177000     701.9318   -4014.0512    4.0766332   -3367.1218    296.78503    197.68893   0.99152618 
  178000    706.08584   -4006.0795    6.2507656   -3321.5175    313.15508    756.19277   0.99088377 
  179000    710.26195   -4046.1865    3.5285282   -3409.4184    292.34694    139.14353   0.98513125 
  180000    714.25689    -4018.442    4.2552458   -3360.4347     301.8169    1797.1329    1.0013639 
  181000    718.36096   -3973.7785    8.2514801   -3321.0395    297.53975    1085.0601   0.98090942 
  182000    722.49329   -4014.8238    6.3958946   -3355.0023    301.66618    328.65544   0.97986224 
  183000    726.59866   -4028.1515    7.5505636   -3399.2029    286.88004      123.202   0.99001952 
  184000    730.81408   -3993.2488    5.7893191   -3313.0305    311.36276    1574.0119    1.0003917 
  185000    734.89975   -4028.0782    7.2849818   -3388.8962    291.72713    131.96333    0.9990682 
  186000    739.00212   -4013.9727     3.615562   -3314.6862    321.16953    -684.7945   0.99815782 
  187000    743.09695   -3994.0053    5.1555863   -3357.4514    291.49684   -741.53837   0.98923897 
  188000    747.18705   -4000.7537    7.3560343   -3339.2142    302.01604   -166.32621   0.97934016 
  189000    750.79417   -3989.5664    4.4030049   -3324.8464    304.84768   -533.74784   0.97990923 
  190000     754.8261   -4009.1066    4.6412068   -3373.4692    291.31122    -1026.188   0.98417864 
  191000    758.87945   -4021.8957    4.1706975   -3367.8834    300.01156   -342.12644   0.98940647 
  192000    762.88448    -4006.888     7.714705   -3327.2824      310.191   -609.38705   0.96370709 
  193000    766.90216   -3999.1435    5.0030095   -3370.7787    287.78665    1448.7446   0.99526319 
  194000    770.31165   -4008.1928    6.6492363   -3365.0613      293.844   -233.91613   0.99670012 
  195000    772.85394   -3993.3166    8.2041399   -3357.6364    289.68604   -1933.1988   0.97398935 
  196000     775.9882   -4045.3343    3.1888973   -3395.9224    298.34099    70.982559   0.98380055 
  197000    778.52891    -4019.233    7.2272183    -3355.533    303.07295    190.11586   0.98931642 
  198000    781.11925   -4033.8338    3.6142356   -3357.6624    310.49858   -236.66232    1.0002961 
  199000    785.14524   -4065.2975    5.3180126   -3400.1932    304.60271   -629.29021   0.99085965 
  200000    789.16694   -4032.3694    4.6887094   -3388.4979    295.09071   -530.96609    1.0018337 
Loop time of 789.167 on 12 procs for 200000 steps with 1090 atoms

Performance: 21.897 ns/day, 1.096 hours/ns, 253.432 timesteps/s
90.9% CPU use with 12 MPI tasks x 1 OpenMP threads

MPI task timing breakdown:
Section |  min time  |  avg time  |  max time  |%varavg| %total
---------------------------------------------------------------
Pair    | 253.92     | 272.1      | 300        |  75.4 | 34.48
Bond    | 0.25834    | 0.59485    | 3.5107     | 115.3 |  0.08
Kspace  | 240.2      | 270.68     | 288.75     |  79.1 | 34.30
Neigh   | 21.486     | 21.547     | 21.609     |   0.8 |  2.73
Comm    | 58.219     | 59.454     | 61.954     |  12.3 |  7.53
Output  | 0.011786   | 0.012227   | 0.016669   |   1.2 |  0.00
Modify  | 145.36     | 152.55     | 154.73     |  19.6 | 19.33
Other   |            | 12.23      |            |       |  1.55

Nlocal:        90.8333 ave          97 max          81 min
Histogram: 1 0 0 1 0 4 1 2 2 1
Nghost:        3802.17 ave        3851 max        3727 min
Histogram: 1 1 0 0 0 3 2 3 1 1
Neighs:        32702.8 ave       37448 max       29847 min
Histogram: 2 1 2 1 4 0 1 0 0 1

Total # of neighbors = 392433
Ave neighs/atom = 360.03028
Ave special neighs/atom = 2.0587156
Neighbor list builds = 8439
Dangerous builds = 3

reset_timestep 0

variable lambda equal ramp(1.0,0.0)
variable minusl equal 1.0-v_lambda
variable q1 equal  0.145*v_lambda-0.180*(1.0-v_lambda)
variable q2 equal -0.180*(1.0-v_lambda)
variable q3 equal  0.060*(1.0-v_lambda)
variable q4 equal  0.040*v_lambda+0.060*(1.0-v_lambda)
variable q5 equal -0.683*v_lambda
variable q6 equal  0.418*v_lambda

fix ADAPT all adapt/fep 100000     pair lj/cut/coul/long/soft lambda 2*3 7*8 v_minusl     pair lj/cut/coul/long/soft lambda 3 4 v_minusl     pair lj/cut/coul/long/soft lambda 4 6 v_lambda     pair lj/cut/coul/long/soft lambda 5*6 7*8 v_lambda     atom charge 1 v_q1     atom charge 2 v_q2     atom charge 3 v_q3     atom charge 4 v_q4     atom charge 5 v_q5     atom charge 6 v_q6     after yes

variable dlambda equal -0.05
variable minusdl equal  0.05
variable dq1 equal (0.145+0.180)*v_dlambda
variable dq2 equal  0.180*v_dlambda
variable dq3 equal -0.060*v_dlambda
variable dq4 equal (0.040-0.060)*v_dlambda
variable dq5 equal -0.683*v_dlambda
variable dq6 equal  0.418*v_dlambda

compute FEP all fep ${TK}     pair lj/cut/coul/long/soft lambda 2*3 7*8 v_minusdl     pair lj/cut/coul/long/soft lambda 3 4 v_minusdl     pair lj/cut/coul/long/soft lambda 4 6 v_dlambda     pair lj/cut/coul/long/soft lambda 5*6 7*8 v_dlambda     atom charge 1 v_dq1     atom charge 2 v_dq2     atom charge 3 v_dq3     atom charge 4 v_dq4     atom charge 5 v_dq5     atom charge 6 v_dq6     volume yes
compute FEP all fep 300     pair lj/cut/coul/long/soft lambda 2*3 7*8 v_minusdl     pair lj/cut/coul/long/soft lambda 3 4 v_minusdl     pair lj/cut/coul/long/soft lambda 4 6 v_dlambda     pair lj/cut/coul/long/soft lambda 5*6 7*8 v_dlambda     atom charge 1 v_dq1     atom charge 2 v_dq2     atom charge 3 v_dq3     atom charge 4 v_dq4     atom charge 5 v_dq5     atom charge 6 v_dq6     volume yes

fix FEP all ave/time 20 4000 100000 c_FEP[*] file fep10.fep

thermo_style custom step cpu epair emol etotal temp press density v_lambda

dump TRAJ all custom 20000 dump.lammpstrj id mol type element xu yu zu
dump_modify TRAJ element C C H H O H H O

#restart 20000 restart1.lmp restart2.lmp

run 2000000
PPPM initialization ...
  using 12-bit tables for long-range coulomb (src/lammps/src/kspace.cpp:339)
  G vector (1/distance) = 0.30785992
  grid = 20 20 20
  stencil order = 5
  estimated absolute RMS force accuracy = 0.0025738694
  estimated relative force accuracy = 7.7511314e-06
  using double precision FFTW3
  3d grid and FFT values/proc = 4046 800
FEP settings ...
  temperature = 300.000000
  tail no
  lj/cut/coul/long/soft lambda 2-3 7-8
  lj/cut/coul/long/soft lambda 3-3 4-4
  lj/cut/coul/long/soft lambda 4-4 6-6
  lj/cut/coul/long/soft lambda 5-6 7-8
  1-1 charge
  2-2 charge
  3-3 charge
  4-4 charge
  5-5 charge
  6-6 charge
Neighbor list info ...
  update every 1 steps, delay 10 steps, check yes
  max neighbors/atom: 2000, page size: 100000
  master list distance cutoff = 12
  ghost atom cutoff = 12
  binsize = 6, bins = 4 4 4
  3 neighbor lists, perpetual/occasional/extra = 3 0 0
  (1) pair lj/cut/coul/long, perpetual, skip from (3)
      attributes: half, newton on
      pair build: skip
      stencil: none
      bin: none
  (2) pair lj/cut/coul/long/soft, perpetual, skip from (3)
      attributes: half, newton on
      pair build: skip
      stencil: none
      bin: none
  (3) neighbor class addition, perpetual
      attributes: half, newton on
      pair build: half/bin/newton
      stencil: half/bin/3d/newton
      bin: standard
Per MPI rank memory allocation (min/avg/max) = 17.08 | 17.17 | 17.29 Mbytes
Step CPU E_pair E_mol TotEng Temp Press Density v_lambda 
       0            0   -4032.3714    4.6887094   -3388.4999    295.09071    -144.5947    1.0018337            1 
    1000    3.3545758   -3993.2304    5.3194267   -3305.7366    314.93855     17.38903   0.99464662       0.9995 
    2000    6.7852473   -3990.5496    5.0385235   -3361.8396    287.92964   -1367.0126   0.97942087        0.999 
    3000    10.132349   -4037.1752    10.134669   -3408.1897    285.70406    1003.8048    1.0186681       0.9985 
    4000    13.551997   -4028.6574    8.9225043   -3372.9576    298.59682    176.35167   0.99738716        0.998 
    5000    16.856717   -4034.9644     5.153222   -3395.6824    292.75745   -214.44893   0.98691849       0.9975 
    6000    20.285674   -3961.0606    6.5330862   -3233.6087     332.8257   -1049.0567   0.96683781        0.997 
    7000    23.700573   -4003.1617    4.1016049   -3365.6668    292.41786    714.42957    0.9657731       0.9965 
    8000    27.245384   -3983.6854    3.7258889   -3318.1293    305.54632   -203.90315   0.96426241        0.996 
    9000    30.717137    -4021.126    7.4393876   -3369.7775    297.27271    830.92864   0.97100771       0.9955 
   10000    32.877415   -3977.2809    12.442455   -3313.9439    300.49762    -694.9947   0.98780289        0.995 
   11000    36.049639   -4025.4557    8.7813189   -3374.6186    296.41707   -713.07777   0.98803007       0.9945 
   12000    39.527296   -3982.0882      8.81454   -3333.9442    295.15844   -654.85798   0.98977554        0.994 
   13000    43.011866   -3998.1789    6.6367253   -3333.2137    303.92965   -79.242187   0.98361459       0.9935 
   14000    46.475418   -4001.8994    6.7431822   -3342.8877      301.132   -471.38776   0.97971171        0.993 
   15000    49.905974   -3985.3373    2.8054926   -3337.1907     297.9338   -782.93789   0.97729067       0.9925 
   16000    53.354801   -4005.7343    8.1902438   -3314.8153     315.1945    504.41636   0.99040984        0.992 
   17000    56.812155   -4020.7888    8.6724318   -3321.9007    318.65099    424.79786    1.0043161       0.9915 
   18000    60.252711    -4011.165    7.4152144   -3338.3288    307.20405    487.07321    1.0081708        0.991 
   19000    63.661736    -4000.211    8.5994689   -3347.9975     297.1365    -1136.116   0.98943576       0.9905 
   20000    67.152591    -4025.673     7.868777   -3360.4895    303.46166    1107.6253    1.0032067         0.99 
   21000    71.017115   -3987.4069    9.6788762   -3297.8043    313.89952   -79.584442    1.0039362       0.9895 
   22000    74.749725   -3999.0871    5.9793644    -3379.271    283.38921    413.63165   0.99137672        0.989 
   23000    78.233916   -4028.1651    5.0748816   -3364.5634    304.02124      864.997    1.0015576       0.9885 
   24000    82.102968   -4002.8068    4.1161274   -3359.3916    295.14438   -1093.2316   0.99577831        0.988 
   25000    85.979137   -3997.5133    7.7403952   -3354.9132    293.09489    734.68297   0.99338046       0.9875 
   26000    89.775403   -4001.9508    4.8498153   -3351.4714    298.06696    396.76657   0.99532596        0.987 
   27000    93.558548   -4000.2666    7.2992026   -3338.7843    302.01588    400.48607    0.9754851       0.9865 
   28000    97.402583    -4042.883     5.262294   -3384.2034     301.6623   -1282.5805   0.95384983        0.986 
   29000    101.19128   -3987.6646    6.5576663   -3312.4903    308.67941   -853.98708    0.9720666       0.9855 
   30000    104.96332   -4020.8242    2.4804869   -3387.0278    291.45881   -29.575949   0.96756159        0.985 
   31000    108.68207    -4040.057    5.2075559   -3399.6966    293.23021   -53.617398   0.97798592       0.9845 
   32000    112.51936   -4013.4625    5.5213134   -3341.9403    307.47181    600.94663   0.99040067        0.984 
   33000    116.28025   -4051.6693    4.6763064   -3396.9046    300.12549     172.9598    1.0122728       0.9835 
   34000    120.09848   -3997.5121    4.9873763   -3332.5959    304.66853    121.94579   0.99435099        0.983 
   35000    123.90096   -4037.9539    6.4402017   -3372.6065    304.19683   -802.34831   0.99358219       0.9825 
   36000    127.63635   -4033.5729    5.5539225   -3385.2234    296.75864    144.53029   0.99739175        0.982 
   37000    131.35205   -3989.8774    6.1335286   -3309.9686      311.061    447.18718    0.9902859       0.9815 
   38000    135.16538   -4013.3716    8.2068177   -3346.1364    304.25278    1419.8261    1.0074425        0.981 
   39000    139.06103   -4064.6848    3.5800055   -3410.7613    300.24325   -1380.6523   0.98338063       0.9805 
   40000    142.95649   -4015.6658    4.9726441   -3321.2365    318.30057   -336.74938   0.98733585         0.98 
   41000    146.37781   -3953.7464     5.446824    -3283.392    306.96707    2088.0378     1.009018       0.9795 
   42000    149.17681    -4026.846    4.4474126   -3388.6039    292.60317   -626.48476    1.0166627        0.979 
   43000    152.94718   -4098.3399    6.6358638   -3454.9372    293.97532   -662.17113    1.0028956       0.9785 
   44000    156.67966   -4080.8117    7.2146513   -3440.0829    292.47369    313.31362   0.99924191        0.978 
   45000    160.37023   -4050.2447    4.4229662   -3420.2504    288.80674    37.375808   0.99503935       0.9775 
   46000    164.11073   -4047.6865    7.0579113   -3357.7382    315.26916   -629.86581   0.99554628        0.977 
   47000    167.86093   -3961.2999    4.0160462   -3281.8017    311.84896   -202.99478   0.98800385       0.9765 
   48000    171.57505   -4028.3908    3.4105315   -3375.7092    299.74813    4.0960436     1.013905        0.976 
   49000       175.34   -3974.3339    6.5220899   -3304.2179    306.36054    398.60761   0.97495125       0.9755 
   50000    179.07388   -4012.8294    7.5971643   -3339.5229    307.33716    189.63282   0.97430839        0.975 
   51000    182.73207   -3985.3401    6.2352269   -3293.6725    316.44266   -820.94361   0.99220879       0.9745 
   52000    186.50105   -3990.2581    7.3425603   -3340.4944    296.58574   -548.45481   0.97719524        0.974 
   53000    190.26854   -4025.9905    4.1360637   -3333.6059    317.74279    910.14149   0.98367329       0.9735 
   54000    194.04109   -3948.3333    5.2733245   -3330.2451    282.91746     1226.123   0.97553019        0.973 
   55000    197.75174    -4045.067    5.7967824    -3411.509    289.81771   -331.53333   0.98555821       0.9725 
   56000    201.65606   -3978.8745    7.2109365   -3328.3206    297.01137    560.38441   0.99324975        0.972 
   57000     205.3934   -3984.3349    6.6314606   -3344.1324    292.49994   -1534.0248   0.99081419       0.9715 
   58000    209.08452   -4023.2073    6.6336035   -3367.0907    299.84597   -180.71673    1.0044792        0.971 
   59000     212.8683   -3999.2949    6.6021937   -3328.8828    306.46028    256.41854   0.98054534       0.9705 
   60000    216.68323   -4035.1703    4.0049066   -3375.3807    302.75529    232.68302    1.0092126         0.97 
   61000    220.50546   -4066.3053    5.6274929   -3422.6414    294.56144    315.04582    1.0055681       0.9695 
   62000    224.30341   -4002.9798    7.8986579   -3343.3317    300.89234    181.37717   0.99172015        0.969 
   63000    228.08349   -3987.5495    5.4069242    -3303.293    313.40362   -171.17077   0.98995678       0.9685 
   64000    231.13673   -4018.4766    6.2584358    -3366.938    297.90564    638.67561   0.98393715        0.968 
   65000    233.99805   -4023.7977    8.9276862   -3354.0999     305.0569   -350.85693   0.98238954       0.9675 
   66000    237.83029   -4004.4206    11.788047   -3330.6579    305.61302     535.6254    0.9810667        0.967 
   67000    241.58439   -4043.2141    7.8168436   -3398.4311    294.06737    725.79494   0.99122685       0.9665 
   68000    245.37901   -3978.5512    8.0507306   -3329.5358    295.91336    948.27602   0.99600135        0.966 
   69000    249.11003   -3987.5353    7.5814385   -3318.5481    305.35036   -923.06107   0.96561106       0.9655 
   70000    252.89025   -4038.1769     6.558951   -3388.2866    297.00598   -1112.8458   0.97534441        0.965 
   71000    256.53871   -4037.8888    7.8700262   -3358.8969      309.836   -850.81533   0.97750034       0.9645 
   72000    259.52056    -4032.857    4.8447623   -3385.4211    296.66419   -929.44077   0.99234026        0.964 
   73000    262.34321   -4071.5226    5.0211958   -3376.6166    318.49826    -509.7035   0.98706671       0.9635 
   74000    266.10962   -4000.4004    7.3326189    -3330.533     305.8716   -224.39639    1.0081847        0.963 
   75000    269.97437   -4023.7042     6.181901    -3394.722    287.52741    1026.1242    1.0088671       0.9625 
   76000    273.72658    -3960.492    7.5298772    -3329.731    287.72631    979.76598   0.98848528        0.962 
   77000    277.47383   -4054.1422    10.930556   -3438.5269    279.16403    208.14815    1.0006804       0.9615 
   78000    281.28652   -4002.7281    6.2837896   -3323.4343    310.70767    922.02415    0.9787229        0.961 
   79000    285.02917   -4008.3006    4.9737029   -3357.3807    298.21319    -85.24183   0.97520749       0.9605 
   80000    288.80384   -4030.5266    7.0392678   -3373.2153    300.21027    201.70054    1.0127867         0.96 
   81000    292.57773   -4049.5365    7.3849267   -3408.5089    292.53299   -86.088984    1.0086861       0.9595 
   82000    296.38854   -3979.2505    7.6965342    -3305.059    307.69987   -1385.1834   0.98646191        0.959 
   83000    300.10559   -4009.7574     7.137029   -3332.6756    309.29253   -348.24071   0.99119938       0.9585 
   84000    303.88818   -4036.3658    7.1886811   -3385.2987    297.25854   -35.334538    1.0087461        0.958 
   85000    307.61013   -3993.5665    5.8618023   -3347.8934    295.38084    205.43393   0.99238482       0.9575 
   86000     311.2452   -3982.7817    5.3133776   -3317.7806    304.55719   -225.93258   0.97304426        0.957 
   87000    314.81456   -4005.2405    5.3244279   -3342.6809    303.42493   -598.23577   0.99234429       0.9565 
   88000    318.50313    -4057.683    9.7411543   -3392.5644    302.56728    183.98892    1.0054146        0.956 
   89000    322.09423   -4002.4727    7.6918401   -3356.0416    294.88594   -828.25677   0.96828125       0.9555 
   90000    325.75196   -4059.9967    10.290501   -3425.7402    288.06558    1055.6159   0.99314745        0.955 
   91000     329.2247   -3991.6605    5.6589218   -3323.1157    306.03368    694.45474   0.96003874       0.9545 
   92000    332.77626   -4002.1942    7.0284729   -3334.4844    305.01592   -453.41486   0.95601694        0.954 
   93000    336.30068   -4016.2729    6.6081772   -3381.9738    289.78529   -278.58153    1.0037812       0.9535 
   94000    339.98715    -4020.156    7.5061613   -3380.7921    291.70899   -32.368716    1.0136196        0.953 
   95000    343.50411    -4019.856    4.0101011   -3322.8743    319.92333    228.55377   0.98387691       0.9525 
   96000    347.11261   -3994.5245     5.270046   -3336.6103    301.30543   -786.21325   0.97680479        0.952 
   97000    350.64297   -3969.9539    8.2255797    -3355.116    280.05398   -510.48119   0.98609131       0.9515 
   98000    354.22708   -4001.7763    4.4254199   -3330.2605    307.97477    337.86373   0.99611468        0.951 
   99000     357.7224   -3964.9913     4.808232   -3289.5926    309.59067    506.28138   0.97766926       0.9505 
  100000    361.39167   -4004.5711    6.2248481   -3370.4335    289.88769   -19.626148   0.96966267         0.95 
  101000    364.62654   -4088.3569     6.055975    -3441.226    295.96427   -310.72883   0.98637915       0.9495 
  102000    367.99159   -3988.0413    5.4636737   -3322.0943    304.92448     1432.547   0.97169437        0.949 
  103000    371.27607   -4063.4322    9.7148962   -3376.3264     312.7302   -392.47622   0.99449171       0.9485 
  104000    374.68393   -3988.1935    4.4668679   -3344.7291    295.00517    -471.3871   0.97610752        0.948 
  105000    378.03806     -3974.59    11.534828   -3317.1056    298.21472   -462.83276   0.96420206       0.9475 
  106000    381.45678   -3979.5999    8.4948336    -3307.697    306.27477   -647.62713   0.96065859        0.947 
  107000    384.31039    -4042.068    7.7693813   -3418.7899    284.16111    989.35767   0.98839161       0.9465 
  108000    387.62537   -4042.4823     4.352645   -3383.3268    302.30198    594.58741   0.98356823        0.946 
  109000    390.52863   -4030.8664    3.6049316   -3371.4545    302.76557   -421.87411   0.96536778       0.9455 
  110000    393.45018   -4016.8981    4.3701815   -3345.6504    307.87652    1390.8403   0.98898634        0.945 
  111000    396.67488   -3982.7477    7.2927774   -3306.3471    308.90616     308.2379   0.99398626       0.9445 
  112000    400.01156   -3994.1088    3.6226538   -3324.5667    307.43419    1202.1651     1.008254        0.944 
  113000    403.12241   -4021.5077    6.4343475   -3347.6794    308.11492    743.82788   0.98766763       0.9435 
  114000    405.23648   -4024.8044    4.7018185   -3327.5644    319.72322    158.07773   0.98638194        0.943 
  115000    408.57291   -3988.7671     4.359472   -3309.1872    311.72815   -464.47273   0.99013569       0.9425 
  116000    411.90328   -4033.0004    5.4309598   -3359.7659    308.30397    300.96975   0.97859253        0.942 
  117000    415.27715   -4047.0613    6.6131243   -3380.5194    304.66847   -50.597877   0.98814027       0.9415 
  118000    418.75352   -4016.0608    8.2546879    -3364.726    296.89002   -793.77693    1.0032336        0.941 
  119000    422.19483   -3989.6361    6.9930299   -3305.4788    312.62556    768.38251    1.0076841       0.9405 
  120000    425.65566     -3958.51    6.2906437    -3301.588    300.37613   -915.82491   0.98877033         0.94 
  121000    429.42115   -3947.1521    5.0454572   -3264.7442    312.71704   -211.92128   0.98111961       0.9395 
  122000    433.04577   -3994.5588    7.5378347   -3336.4913    300.32919   -1845.5211   0.98091901        0.939 
  123000    436.68465   -4031.4493    5.3818932   -3398.7663    289.60534    92.937042   0.99207898       0.9385 
  124000    440.32998   -4029.4055    5.9593347   -3366.2259    303.41805    565.54265    1.0143554        0.938 
  125000    444.00255   -4017.2804    5.3370285   -3376.2833    293.46439   -93.215681    0.9961602       0.9375 
  126000    447.71556   -3946.6579     8.196924   -3272.4364    307.48273    323.46243    1.0013476        0.937 
  127000    451.45859   -4018.4988    8.5094755   -3374.7792    293.25665   -829.70401   0.98382307       0.9365 
  128000    455.13508   -4013.7393    3.7687742   -3348.0086    305.60716    1075.4709     1.001035        0.936 
  129000    458.82574   -3987.6646     4.818315   -3339.8986    296.82883    366.76396    1.0078677       0.9355 
  130000    462.55383   -3992.1695    6.8180524   -3317.0852     308.5176    1435.8981    1.0429598        0.935 
  131000    466.22586   -4033.3881    5.3838207   -3398.4406    290.64985   -315.50272    1.0081175       0.9345 
  132000    469.85878   -3975.0472    7.9574338   -3298.1961     308.8073    900.93256    1.0089528        0.934 
  133000    473.57653   -4002.8757    4.7838852   -3341.8254    302.97765    185.89228    1.0194803       0.9335 
  134000    477.16955   -4018.9909    4.5817022   -3364.3993    300.08925   -230.09462   0.99894508        0.933 
  135000    480.88117   -4022.5034    6.7604684   -3349.1836    307.72959   -1181.8286   0.99015303       0.9325 
  136000    484.48898   -3945.5225    5.3673825   -3285.1658     302.3881   -117.11404   0.97961473        0.932 
  137000    488.06443    -3999.453    6.4974261   -3367.4038    288.79766    278.15677   0.99313905       0.9315 
  138000    491.71582   -4001.3796    6.0161675   -3325.9543    309.04526    501.70744    1.0099104        0.931 
  139000    495.19672   -3982.6861    4.6435437   -3321.9203    302.91116   -501.26783   0.98497413       0.9305 
  140000    497.75098   -4012.9548    6.8909636   -3381.3346    288.41791   -63.984419   0.98453196         0.93 
  141000    501.41659   -3974.6926     6.442552   -3315.3868    301.40656    -258.6274   0.99832552       0.9295 
  142000    505.12029   -3971.9967    6.8349515   -3330.8354    292.84865   -398.55139   0.99318304        0.929 
  143000    508.80435    -4015.323    4.9525317   -3332.7951    312.81535    380.11216    1.0185103       0.9285 
  144000    512.40822   -4011.2141    4.6970676   -3406.8381    276.85304    958.12021    1.0094431        0.928 
  145000    516.17583   -4000.1968    6.9403806   -3335.4794    303.67506     438.2007    1.0004575       0.9275 
  146000     519.7943    -3963.354    4.9237149    -3302.976    302.60273     6.368374   0.98781362        0.927 
  147000    523.42821   -4003.1088    4.9945253   -3367.2654    291.24322    545.64218   0.98209255       0.9265 
  148000    526.99261    -3937.021    7.0130061   -3294.0709    293.59227   -84.769349   0.98490378        0.926 
  149000    530.64076   -4012.5248    4.9366921   -3376.2405    291.47348   -189.52761   0.98230982       0.9255 
  150000    533.19807   -3980.9776    4.3157598   -3327.9009    299.51263    477.48925    1.0028517        0.925 
  151000    536.84638   -3997.3914     5.088565   -3322.9809    309.00499   -502.20823   0.97272397       0.9245 
  152000    539.65372   -3970.9957    5.4167787   -3309.1765    303.04048   -1191.1165   0.95202853        0.924 
  153000    542.60344   -4066.0567    4.7497344   -3427.2182    292.73895    852.85795   0.99868612       0.9235 
  154000    546.11784   -4066.1458     8.317059   -3375.7753    314.88278    917.11115    1.0153725        0.923 
  155000    549.95873   -4002.6795    6.3325323   -3346.8579    299.84875    52.514327   0.98772371       0.9225 
  156000    553.67375   -3985.4278    5.8063589   -3343.1441    293.84166   -558.71946   0.99573215        0.922 
  157000     557.4443   -4032.4239     3.906042   -3379.7449    299.51821   -718.51028   0.97427344       0.9215 
  158000    561.15382   -4063.6477    4.0628182   -3388.7576        309.7    -994.2303   0.98887104        0.921 
  159000    564.92665   -4035.9886    5.4108926   -3399.0643    291.55001   -468.57685   0.98325349       0.9205 
  160000     568.6473   -4030.5161    3.2269875    -3387.099    295.55572    642.22611    0.9817309         0.92 
  161000    572.37796   -4055.5145    4.6021981   -3425.5858    288.69373    718.02945    1.0074149       0.9195 
  162000    576.07864   -3957.8445    3.1098924   -3311.4752    296.97274   -328.90791   0.96658101        0.919 
  163000    579.92597   -4060.1573    6.1765448    -3381.234    310.58613     542.6289    1.0026447       0.9185 
  164000    583.82942   -3967.5616    4.5813837   -3326.3512    293.91171    789.91521   0.99022604        0.918 
  165000    587.61851   -3977.3975    4.1469939   -3336.4489    293.99137   -784.07092   0.97866663       0.9175 
  166000    591.39131   -4011.4535    3.7390191   -3355.3641    301.16981    1723.3526    1.0185165        0.917 
  167000      595.209   -4001.4814    3.0250823   -3345.6288    301.39007    337.34304     1.015497       0.9165 
  168000    598.98108   -4028.1236    5.6058709   -3356.6754    307.39858   -184.84474   0.99910641        0.916 
  169000    602.77403   -4043.8031     3.673406   -3402.7492    294.25862    30.248789    1.0042969       0.9155 
  170000    606.61958   -3989.9984    4.8025057   -3308.3893    312.46043    182.59583    1.0120067        0.915 
  171000    610.43458   -4035.4849    2.0260949   -3359.0925    311.33384   -1225.8828   0.98146002       0.9145 
  172000     614.1118   -3983.6842    2.8253067   -3331.3331    299.86575    1267.9966    1.0213967        0.914 
  173000    617.84877   -3974.9025    3.2239368   -3334.3096    294.25334    111.98893   0.97969389       0.9135 
  174000     621.6112   -4051.3118    2.4911423   -3414.9485    292.63895   -775.23755   0.98985386        0.913 
  175000    625.40624   -3994.5524    3.3427092   -3340.6964    300.32162    160.91865   0.97086594       0.9125 
  176000    629.14324   -4032.1261     3.220223   -3390.1173    294.90871    572.55081   0.99505367        0.912 
  177000    632.91633   -3981.0642    3.6053695   -3347.5006    290.83204    812.95321   0.99790627       0.9115 
  178000    636.58149    -3990.982    5.1434901   -3340.9744    297.71359    683.77304    1.0007127        0.911 
  179000     640.3396   -4001.5763    2.6440078   -3314.8083    315.83866    555.97736    1.0040043       0.9105 
  180000    644.12597   -4031.9652    3.8111187    -3397.462    291.17081   -473.16527   0.97992192         0.91 
  181000    647.88235   -4043.5487    3.8465642   -3368.3967    309.92073    387.13805   0.98429557       0.9095 
  182000    651.64715   -3957.9685    3.2931269   -3308.7171    298.21871   -980.08232   0.96965421        0.909 
  183000    655.31492   -3937.4233    4.2911586    -3277.677    302.60317   -308.18354   0.96005617       0.9085 
  184000    659.03355   -4007.2289    6.4367466   -3355.6378    297.84758   -491.82453   0.99797841        0.908 
  185000    662.79187    -3954.894     6.383049   -3289.8284     304.0931    622.19366    1.0049916       0.9075 
  186000    666.53153   -4009.9165    5.3976691   -3363.2295    296.06322    -591.0458   0.99808366        0.907 
  187000     670.3705   -4007.4764    4.2980999    -3409.182    274.22953   -826.62992   0.98630647       0.9065 
  188000    674.16683   -4036.3133    2.3578072   -3395.7255    294.65082   -37.350877   0.98807603        0.906 
  189000    677.99862   -3980.6955    5.3301153   -3329.7316    298.06893   -980.67321   0.98402781       0.9055 
  190000    681.81163   -3976.9309    4.2417175   -3295.6002    312.59078    120.17174    1.0095087        0.905 
  191000    685.60183   -4033.5462    5.8061881    -3361.573    307.54849   -331.35921   0.99917449       0.9045 
  192000    689.35703   -4025.5236    3.8824476   -3348.1024    310.95176     -1477.91   0.97158232        0.904 
  193000     693.0651   -4023.0094      4.54768   -3363.6979    302.28396   -342.20998   0.99407434       0.9035 
  194000    696.82885   -4027.6481    4.4847219   -3391.4428    291.64562     1201.859   0.99801227        0.903 
  195000    700.61457    -4043.197    6.1562964   -3353.1491    315.73134    366.64542    1.0061572       0.9025 
  196000     703.8205   -3970.3771    5.0361207   -3332.0528    292.36937    232.06019   0.98439973        0.902 
  197000    706.29457   -3972.8504    6.7107588   -3342.0995    288.09983    86.350303   0.97564809       0.9015 
  198000    710.07754   -3984.7754    5.9810251   -3315.9165    306.03002    607.47295    1.0043167        0.901 
  199000     713.9125   -4056.2435    7.2207229   -3418.7261    290.98825   -667.43074   0.99402542       0.9005 
  200000    717.60574   -4001.0153    4.1890107   -3347.2621    299.88348    80.972154    1.0018321          0.9 
  201000    721.00168   -4046.6475    4.7011757   -3408.4477     292.4665   -638.41941    0.9726137       0.8995 
  202000    724.37105   -4041.3731    6.0172822   -3372.5068    306.01669    1008.5163    1.0101529        0.899 
  203000    727.79487   -4049.2958    8.9827895   -3395.0592    297.89354    1703.2391    1.0175807       0.8985 
  204000    731.23674   -4059.8483    6.5794544   -3374.7267    313.26167    316.23604   0.97959482        0.898 
  205000    734.62896   -4011.5148    5.3522258   -3341.7876    306.72113      1350.24   0.98398156       0.8975 
  206000    738.05602   -4075.5669    4.2654555   -3427.6141    297.17031   -821.60252   0.97919704        0.897 
  207000    741.51809   -4045.9649     6.658399   -3401.8668    294.28601   -483.67137   0.98146352       0.8965 
  208000    744.98842   -4014.1163    6.1288919   -3353.9821     301.9338   -327.87732   0.98524894        0.896 
  209000    748.46018   -4015.0852    5.0079766   -3343.6889    307.65065    -1355.143   0.97562767       0.8955 
  210000    751.97474   -3996.8622    5.4380888   -3355.9511    293.37806    281.81089   0.98587835        0.895 
  211000    755.44531   -3981.1906    7.0581636   -3331.7803    296.55391    980.50442    1.0248987       0.8945 
  212000    758.43467     -3951.01    6.3449897   -3322.3295    287.31287   -508.71321    0.9922655        0.894 
  213000    761.80577    -3989.353    7.2333872   -3322.5101    304.52106   -277.12934   0.98399835       0.8935 
  214000    765.22219   -4018.1107    5.4465779   -3348.5177    306.61562   -245.10304   0.98673323        0.893 
  215000    768.68595   -3981.3214    9.6852664   -3338.1033    292.48231    635.46454   0.99051566       0.8925 
  216000    772.16057   -4030.5765    10.563113   -3372.9501     298.7289   -10.860782   0.97590289        0.892 
  217000    775.63552   -3991.7673    10.470155   -3321.2281    304.73323   -796.61047   0.97911596       0.8915 
  218000    779.12499    -4038.861    6.1143433   -3377.9658    302.29185    507.96774    1.0113451        0.891 
  219000    782.61346   -4002.3368    6.8561813   -3324.3732    309.82934    367.96029   0.99030635       0.8905 
  220000    785.98983   -3983.6115    5.6035355   -3304.5969    310.89286    750.93233    1.0085255         0.89 
  221000    789.78394    -3996.363    6.1889521   -3330.2702    304.65696    203.90949    1.0122424       0.8895 
  222000     793.7486   -3948.4861     6.946106    -3284.362    303.39856    1208.8999   0.99524479        0.889 
  223000      797.683   -4020.4558    4.8292051   -3357.7391    303.72611    412.58927    1.0046814       0.8885 
  224000    801.60189   -3983.9843    8.1414225   -3329.5664    298.36565   -521.50096   0.99385178        0.888 
  225000    805.44444   -4000.2752    5.5658622   -3313.8374    314.33726    1396.9726    1.0038174       0.8875 
  226000     809.3813   -4004.5411    4.8751989    -3388.414    282.19589    409.24093   0.99680082        0.887 
  227000    813.22188   -4017.5174    2.8970258   -3369.1945    297.97296    319.13346   0.98052205       0.8865 
  228000    816.98721    -3978.721    2.8006288   -3330.8338     297.8163   -350.86959    1.0013219        0.886 
  229000    820.79918    -4028.267    4.1074154   -3365.5883    304.04176   -491.86507   0.98762291       0.8855 
  230000    824.47102   -4032.5099    6.6473439   -3398.5163    289.62617   -1768.8921   0.98514033        0.885 
  231000    828.21721   -4015.3906    4.7441117   -3360.3306    300.23049   -908.04595   0.97477351       0.8845 
  232000    831.98067   -3989.2084    5.0261388   -3345.4903    294.86411   -1819.2534   0.97259982        0.884 
  233000    835.76027   -3990.6789    6.1952009   -3373.8766    281.89819   -126.75202   0.98889883       0.8835 
  234000    839.53184   -3955.8902    4.0294489   -3285.6539    307.56685   -276.02917    1.0089669        0.883 
  235000    843.31709   -4020.7632      5.19199   -3341.2267     311.3238    15.722744    1.0061162       0.8825 
  236000    847.12146   -4010.2128    5.9456767   -3377.8793    289.18366   -90.608666    1.0051791        0.882 
  237000    850.96395   -4027.6877    6.9806614   -3367.5209     301.5556   -544.45922   0.98344397       0.8815 
  238000    854.77977   -3979.4893    6.9466006   -3310.4167    305.68289    433.07864    1.0000493        0.881 
  239000    858.61743    -3938.469    5.5099896   -3272.2715    305.01878   -546.59274   0.98925489       0.8805 
  240000    862.35278   -3997.6736    8.1377372   -3365.6149     288.0448   -25.082387    0.9824638         0.88 
  241000    866.08538   -3984.8303    8.3907967   -3322.3733    301.96193   -526.67321   0.99264175       0.8795 
  242000     868.6833   -3985.7288    4.8776701   -3322.2954    304.03458   -1134.2174   0.98535876        0.879 
  243000    872.12231   -4029.9385     3.804604   -3384.1644    296.37724    -1757.019   0.98718882       0.8785 
  244000    875.21581    -4008.489    3.3846545   -3357.6673    298.90143   -687.29884    1.0027674        0.878 
  245000     878.9126    -3997.122    4.2583431   -3335.8529    303.32134    631.42615      1.01757       0.8775 
  246000    881.41103   -3989.5368    6.9227857   -3360.6013    287.16385    621.83323    1.0117163        0.877 
  247000    885.08367   -4023.3198    6.0792988   -3351.2504     307.4668   -46.962486     1.001949       0.8765 
  248000      888.611   -3993.7736    4.7548047   -3344.9525    297.34526    779.67116    0.9840631        0.876 
  249000    892.35669   -3991.3216    6.7291264   -3354.5902    290.85238    406.59635    1.0029244       0.8755 
  250000    896.13404   -4011.5009    5.4343583   -3340.2528    307.38542    381.01489   0.98909522        0.875 
  251000    899.87787   -4059.1896    3.3740806   -3415.2206    295.74266    679.85375    1.0064191       0.8745 
  252000     903.6961   -4050.3685     6.127289   -3387.7202    303.09522    647.28678    1.0158471        0.874 
  253000    907.49626    -4002.765    6.6696619   -3324.5748    310.02001   -678.46784   0.96721727       0.8735 
  254000    911.32583   -4007.9625    4.1451875   -3380.9504    287.55817    1029.0595    1.0091063        0.873 
  255000    914.91793   -4012.6399    6.0998582   -3345.1243    305.35497     74.41217   0.97899637       0.8725 
  256000    918.41112   -3949.0435    4.7054304   -3310.6653    292.54689   -369.99096   0.97045934        0.872 
  257000    922.05366   -4024.4616    5.8139396   -3371.1879    298.91191   -53.497672   0.97629856       0.8715 
  258000    925.56773    -4016.804    5.4414033   -3319.5749    319.37676   -462.82882   0.99123877        0.871 
  259000    928.78252   -4000.8314    4.1389721   -3346.5157    300.16626    867.93703   0.98335039       0.8705 
  260000    932.29359   -3962.5121    3.1684344   -3310.1735    299.70156   -652.79604   0.98397213         0.87 
  261000    935.17819   -4016.7037     9.565038   -3351.3802     302.7432    151.00095    1.0035263       0.8695 
  262000    937.46841   -4036.7066    7.1795575   -3359.7223     309.2279    853.51212    1.0273481        0.869 
  263000    941.04846   -4038.7525    6.5015734   -3358.6067    311.00046    986.01486      1.01402       0.8685 
  264000    944.66572   -4043.8236    6.9011332   -3372.3341    306.81967   -1301.7459   0.98189475        0.868 
  265000    948.27797   -3990.5974    6.3731406    -3341.116    296.90298   -140.67546   0.97292437       0.8675 
  266000    952.04828    -4006.157    4.9860293    -3384.229     284.8228   -653.84579    0.9876958        0.867 
  267000    955.76665   -4016.9635    2.5807213   -3337.5326    312.48057   -461.70243   0.97809554       0.8665 
  268000    959.40428   -4023.2079    3.3493305   -3353.5256     307.6251    391.20877    1.0049859        0.866 
  269000    963.12477    -4043.238    5.4727917   -3387.4304    300.23921   -338.21334    1.0186874       0.8655 
  270000    966.96268   -4029.4181    3.0694729   -3335.6408    318.87821    1548.8636    1.0042337        0.865 
  271000    970.92332   -4012.8588    4.7622875   -3355.8827    301.10669    529.00605    1.0045309       0.8645 
  272000    974.86235   -3971.6679    4.8082283   -3334.6482    291.87228   -163.71756   0.99227296        0.864 
  273000    978.63396   -3988.7438    5.1971727   -3362.6029     286.6703   -35.495977     0.981853       0.8635 
  274000    982.37259   -3988.0783    6.0938951    -3321.338    304.99977   -289.87179   0.99517894        0.863 
  275000    986.12535   -4014.3015     5.276743   -3355.0568    301.91655    993.95708    0.9976424       0.8625 
  276000    989.91631   -3956.3232    4.6269543   -3292.5578    304.30361    1324.3638    1.0039106        0.862 
  277000    993.78397   -4051.7676    5.7297235   -3382.1071    306.51606   -747.70425   0.99692681       0.8615 
  278000    997.23931   -3979.7807    3.3096623   -3315.1997    305.28829   -358.16137   0.97124043        0.861 
  279000    1000.5464   -3992.7381    4.8392579   -3347.2798    295.75376   -210.42004   0.96797613       0.8605 
  280000    1003.2278   -4040.6014    4.0701127   -3390.1994    298.39121   -603.68815   0.97162699         0.86 
  281000    1006.8347    -3964.673    5.5025441   -3335.9985    287.69902    -1196.409   0.96529498       0.8595 
  282000    1010.3823   -4035.3636    4.5018752   -3395.9707    293.10931    916.23375   0.99822165        0.859 
  283000     1013.918   -3935.6061    5.4319792    -3282.443    299.03722   -297.69733   0.98603894       0.8585 
  284000    1017.0433   -3955.6356    5.1978347   -3317.3626    292.27096   -1401.9001   0.99607535        0.858 
  285000    1020.6649   -3990.0616    8.2184699   -3367.3077    283.71181    752.41742   0.99008962       0.8575 
  286000    1024.2682   -3967.1387    13.192811   -3310.6535    296.98799    148.63705   0.98857873        0.857 
  287000    1027.8046   -4018.9477    9.2264174   -3341.9781    308.27615    254.14445   0.96893993       0.8565 
  288000    1031.3165   -4014.0502    7.4258804   -3359.2049     298.8933    322.14208   0.97593272        0.856 
  289000    1034.8614   -3953.8826    7.6679005   -3312.8769    292.39224    219.10727   0.98141773       0.8555 
  290000    1038.4132   -3972.4784    6.9449326   -3314.3996    300.60814   -75.604706   0.97936748        0.855 
  291000    1042.0614   -3962.3034    10.436566   -3285.8432    307.48231   -1057.6795   0.98670049       0.8545 
  292000    1045.7075   -3990.4629       10.918   -3346.9096    292.06794   -140.63787   0.99173463        0.854 
  293000    1049.3828    -3968.167    7.5183654   -3318.2559    296.57263    -401.5713   0.97346845       0.8535 
  294000    1052.4645   -4002.3007    5.8822353   -3355.7227    295.78923    616.66468    1.0042159        0.853 
  295000    1056.1191   -3992.6609    4.0084202   -3361.0332    289.75219    461.35477   0.97615936       0.8525 
  296000    1059.8236   -3978.1361    6.7194422   -3298.0056    310.89285    1752.6277   0.99914187        0.852 
  297000    1063.4949   -4034.8463    7.7726502   -3393.8781    292.32657   -911.37843   0.97252984       0.8515 
  298000    1067.2081   -4023.3269    6.1049224   -3344.1367    310.74246    743.10872    1.0003774        0.851 
  299000    1070.8897   -4004.3169    6.7619268   -3338.2153    304.39654    804.09546    1.0076474       0.8505 
  300000    1074.5078   -4010.8959    9.4772004   -3389.9675    282.28789    505.30616   0.98804655         0.85 
  301000     1077.887     -4004.66    5.3824259   -3363.5813    293.48111    916.19945    1.0062032       0.8495 
  302000    1081.3023    -3990.221    10.306774    -3314.236    307.32281    211.57683     1.003751        0.849 
  303000     1084.809   -4029.0737    11.058993   -3355.9976     305.6326   -1158.0816    1.0081986       0.8485 
  304000    1088.2281   -3996.3762    5.4011806    -3336.055     302.3561   -269.39467   0.98311773        0.848 
  305000      1091.57   -4004.3952    7.2495875   -3386.0183    282.13837   -283.42257   0.98236793       0.8475 
  306000    1094.9699   -3993.5024    5.5291314   -3361.1676    289.37655     171.8366    1.0079982        0.847 
  307000     1098.356   -3997.7061    6.3760295   -3318.3675    310.68574    683.94938   0.99815524       0.8465 
  308000    1101.7418   -3983.9368    7.0125938   -3318.0453    304.18375   -508.62351   0.98103136        0.846 
  309000    1104.9954   -3983.2787    8.0849569   -3340.6541    292.94708   -119.13927   0.98855155       0.8455 
  310000    1108.2817   -4007.3427     4.716774   -3332.4241    309.41124    315.49763     1.005818        0.845 
  311000    1111.6431   -4053.2596    4.9735905   -3390.8717    303.50762    698.52561   0.99122174       0.8445 
  312000    1114.9748   -3994.3846    5.3077174   -3331.7103     303.4856    1376.1518    1.0044256        0.844 
  313000     1118.282   -4035.7748    5.4473666   -3379.1649    300.62139   -389.89851   0.96676947       0.8435 
  314000    1121.6042   -4023.4431    5.4161476   -3350.9991    307.94593    706.53473    1.0020995        0.843 
  315000    1124.9837   -4000.7815    8.0103682   -3309.6161    315.39134   -671.43725   0.96155521       0.8425 
  316000    1128.4329   -3994.2726    3.9981655    -3373.187    284.88999   -227.31974    0.9709628        0.842 
  317000     1131.829   -3987.9455    6.3106556   -3316.3313    307.14982   -1648.5257   0.94984389       0.8415 
  318000    1135.2324   -4000.3956    5.3784302   -3351.8774    296.91749   -644.76716   0.98398226        0.841 
  319000    1138.7178   -3991.1857    6.3274066   -3356.4384    290.12182   -894.53317   0.96389439       0.8405 
  320000    1142.1817   -4018.3521    7.0307762   -3339.1677    310.31228   -42.528966   0.98956547         0.84 
  321000    1145.9405   -3991.7888    3.9968641   -3333.1066    302.24777    105.51498   0.99151566       0.8395 
  322000    1149.5887   -4023.4196    3.5484344     -3351.56    308.53836   -433.00996   0.98376711        0.839 
  323000     1153.269   -3989.5243    3.8671661   -3322.1449    306.32287   -811.08195   0.96608047       0.8385 
  324000    1156.8961   -4044.5087    4.8017681    -3370.989    308.72614      59.9968    0.9781598        0.838 
  325000    1160.6241   -4050.2849    5.7459379   -3433.3131    282.18387   -1129.7732   0.98241646       0.8375 
  326000    1164.4703   -4015.2103    6.8067037   -3347.6161    305.06491   -1147.5555   0.99044961        0.837 
  327000    1168.3759   -4003.4523    6.7205104   -3344.5776    301.07922    825.50614    1.0148364       0.8365 
  328000    1172.2076   -4063.0761    8.1402887   -3417.8696    294.11354    946.49606    1.0041109        0.836 
  329000    1176.0007    -4032.767    8.3738909   -3356.1431    308.51016   -57.860008   0.99053885       0.8355 
  330000    1179.7668   -4035.7301    6.8275106   -3372.7626    302.91932    184.08047   0.98943681        0.835 
  331000    1183.4638   -4029.0643    4.9997712     -3359.51    306.80405    1149.1419   0.99419403       0.8345 
  332000    1187.1148    -3962.524    7.8583889   -3309.6778    297.77067   -199.13477   0.98039986        0.834 
  333000    1190.7664   -3986.4717    6.6614278   -3330.3075    299.85513    539.17339   0.98318912       0.8335 
  334000     1194.492   -4014.0148    6.6332336   -3367.8097    295.27037    314.55336   0.98309584        0.833 
  335000    1198.2208   -4043.0974    5.8040809   -3381.4226    302.79498   -501.32643   0.98582814       0.8325 
  336000     1202.001   -4010.2492    9.3909564   -3295.5084    325.63796   -253.02169   0.99839702        0.832 
  337000    1205.7458   -4046.4324    9.2750999   -3414.1905    287.60431   -831.99812   0.99071748       0.8315 
  338000       1209.6   -3992.1944    4.6066725   -3366.8864    286.55837    1358.5974   0.98974283        0.831 
  339000    1213.3677   -3980.8093     4.950678    -3330.512    297.93637    829.35871    1.0064375       0.8305 
  340000     1217.214   -3988.5732    9.0401025   -3327.9971    300.79382    1465.6822    1.0033223         0.83 
  341000    1221.0522   -4022.6627    5.5239981   -3367.6805    299.83457    -234.7068    0.9973456       0.8295 
  342000    1224.8605   -3998.2665    5.5261395   -3321.9827    309.66781     758.9485    1.0019218        0.829 
  343000    1228.6965   -4018.9228    4.8275094   -3340.0932    311.16565   -450.56826    1.0021019       0.8285 
  344000    1232.4816   -3988.1206    4.7697904   -3313.7942    309.11334   -438.03453   0.98683596        0.828 
  345000    1236.3208   -3955.1069    5.7002194   -3312.7821    293.90967   -96.981484   0.99462047       0.8275 
  346000    1240.1202   -3973.7593    5.6971021   -3286.9579    314.44453   -1716.5759   0.97749084        0.827 
  347000    1244.0058   -4081.1957    6.6092861   -3418.1259    303.06728    48.348993    1.0031887       0.8265 
  348000    1247.8624   -4033.8901    5.7207255   -3364.4086    306.43761    498.97718    1.0031632        0.826 
  349000    1251.6659   -4017.3229    5.1474425   -3393.3922    285.67287    646.13152    1.0033036       0.8255 
  350000    1255.3544   -4028.8908    6.5984564   -3412.1491    281.68405   -350.31167   0.99687705        0.825 
  351000    1259.2141   -3963.3561    3.4691614   -3293.2101    307.78383    -487.2679   0.96102191       0.8245 
  352000    1262.9683   -4042.1927     5.274899    -3382.885    301.94649   -225.55002   0.99119244        0.824 
  353000    1266.8431   -4020.9029     7.774113   -3365.7779    298.86166    887.36251   0.99722511       0.8235 
  354000    1270.5678   -4021.3691    3.8718332   -3345.6585    310.16694    205.02043   0.99577813        0.823 
  355000    1274.3245   -4055.4114    5.8446421   -3421.8129    289.81432    41.769397   0.99453693       0.8225 
  356000    1278.0414   -4022.7818     4.523922   -3357.1854    305.19647    1434.7683   0.99441925        0.822 
  357000    1281.7697   -4007.8168    4.5330798    -3338.883    306.73305    243.94902   0.99483163       0.8215 
  358000    1285.5948    -4033.516    4.1192402   -3399.4677    290.81855     341.1039    0.9885821        0.821 
  359000    1289.3519   -3964.1381    5.4781392   -3302.3647    302.99099    364.98435   0.97530843       0.8205 
  360000     1293.104   -4023.3416    5.4024064   -3402.3465    284.19991    623.53194    1.0092789         0.82 
  361000     1296.856   -3976.0399    3.9736006   -3326.1143    298.21585   -82.176602    1.0007584       0.8195 
  362000    1300.6653    -3998.273    3.5706628   -3336.4849     303.8784   -175.73777   0.99610075        0.819 
  363000    1304.4828   -3982.3246    3.9135351   -3350.1608    290.04351   -455.52236   0.97761242       0.8185 
  364000    1308.2538   -3957.3469    4.5656089   -3315.9351    294.01198   -58.295763   0.96214863        0.818 
  365000     1311.969   -3993.2869    5.3849684   -3342.7583    297.84265   -457.59447   0.97463965       0.8175 
  366000    1315.7971   -4003.1883    5.7856123   -3335.9278    305.38227   -86.330689   0.98832696        0.817 
  367000    1319.6442   -4057.5002     4.066286   -3445.5927    280.62126   -430.35084    1.0029442       0.8165 
  368000    1323.6434   -4046.9654    4.0096466   -3381.8116     305.2296     510.4009   0.99595846        0.816 
  369000    1327.6338   -3986.9471     3.738746   -3341.5654     296.2265    985.15957    1.0025929       0.8155 
  370000    1331.5877   -3986.5475    2.9740428   -3344.7865    294.90798   -729.38531    1.0052683        0.815 
  371000    1335.3885   -4047.1351    3.5997487   -3353.6501    318.49846   -950.41376   0.99211918       0.8145 
  372000      1339.17   -4009.3917    4.1590616   -3360.8919    297.47196   -419.36061   0.99737327        0.814 
  373000    1342.9444   -4035.8362    4.1075884   -3369.6823    305.64608    640.75608    1.0095875       0.8135 
  374000    1346.6825   -3972.8328    4.0228678   -3288.4354    314.10767   -1030.3343   0.99467226        0.813 
  375000    1350.3918   -4045.9022    3.5406464   -3389.3357    301.48162   -560.35874    0.9908199       0.8125 
  376000    1354.0467   -4044.1567    4.9607118   -3369.0416    309.38934    400.73609   0.99004741        0.812 
  377000    1357.6432   -4047.4227    6.7387577   -3363.8792    312.45962    329.83668   0.99251644       0.8115 
  378000    1361.3594   -3980.8876    4.9039004   -3342.7857    292.32773   -951.06112   0.97212911        0.811 
  379000    1365.1386   -4008.4729    5.8147381   -3364.8109    294.47412    560.84248    1.0024901       0.8105 
  380000    1368.9387   -3960.1967     5.565558   -3298.5839    302.87647    452.64611   0.97413621         0.81 
  381000    1372.5626   -3996.9053     3.335434   -3361.1877    291.95107   -1006.7392   0.96235678       0.8095 
  382000    1374.9807   -4005.1637      5.42061   -3355.9121    297.23666   -197.17803   0.97058536        0.809 
  383000    1378.5088   -4021.6182    4.9732731   -3356.8202    304.62046    972.68824   0.99317347       0.8085 
  384000    1380.7851   -3996.1408    6.5921651   -3342.4454    298.74732   -2.5618135   0.99044105        0.808 
  385000    1384.1477   -4024.2503    5.0111749   -3368.4236    300.46116   -355.87083   0.98683399       0.8075 
  386000    1388.0038   -4001.3127    6.1712541   -3349.2116    298.20563    1361.4122     1.010818        0.807 
  387000    1391.7393   -4005.3843    7.6835595   -3360.0351    294.39032   -964.24884   0.98367001       0.8065 
  388000    1394.0983   -4048.1083    11.187524   -3386.2635    300.38814   -339.13444    1.0025049        0.806 
  389000    1396.4423   -4034.8974     5.730644   -3352.0976    312.58163   -192.74682   0.99888641       0.8055 
  390000    1399.2487   -4028.2902    5.8056668   -3386.4264    293.64816    281.40017     1.007878        0.805 
  391000     1402.689   -3950.7521    7.2056244   -3273.4663    309.35508    -123.4118   0.96490018       0.8045 
  392000    1406.3348   -3968.3142    8.1467139   -3347.6799    282.76637   -19.113813    1.0122197        0.804 
  393000     1409.958    -3991.005    4.7797355   -3333.6466    301.27516    32.917224   0.98314463       0.8035 
  394000    1412.4021    -4029.528    4.6231318   -3367.0303    303.72011   -281.85361   0.99874876        0.803 
  395000    1414.8624   -3923.5749    2.7745635   -3261.1954    304.51901   -129.73461   0.96729746       0.8025 
  396000     1418.254    -4006.736    7.9639461   -3345.1251    301.76834   -467.26987    1.0043457        0.802 
  397000    1421.0343   -3963.8561    6.1053306   -3317.7483    295.46911   -103.50441    0.9882348       0.8015 
  398000    1424.6089   -3951.5849    5.1642344   -3305.2943    295.98796   -348.75312   0.97780424        0.801 
  399000    1428.2582    -3992.645    6.6136325   -3310.2667    311.97944    -461.6558    0.9967985       0.8005 
  400000    1431.7826   -4026.3385    6.1478235   -3361.1478    304.25946    178.63459    1.0128927          0.8 
  401000    1434.3295   -4042.3728    4.5167982   -3388.7952    299.65111   -425.45175   0.97588445       0.7995 
  402000    1436.5882   -4052.3784    4.3866149   -3408.9831    295.01031   -1382.5407   0.99290076        0.799 
  403000    1440.0404    -4003.812    4.6898779   -3314.4059    316.11208    257.55017    1.0014282       0.7985 
  404000    1443.4579   -4057.4488    5.3610378   -3402.6456    299.82715   -384.07944    1.0056695        0.798 
  405000    1446.6988   -4001.7291    5.5372435   -3346.3139    300.02832    -38.27392   0.98227691       0.7975 
  406000    1449.1519   -3972.8079    4.9146386    -3300.735    308.00609    585.52161   0.97204078        0.797 
  407000    1452.4733   -3998.0921    5.3397045   -3310.0994    315.15957   -406.99246   0.97065025       0.7965 
  408000    1455.7396   -4007.5288    4.0545202   -3338.6657    306.92129    -130.5129   0.99722484        0.796 
  409000    1459.0867   -3958.7248    4.6755269   -3310.4522    297.12865   -557.62726   0.98179801       0.7955 
  410000    1462.5281   -4008.3087    6.6884127   -3334.6594    307.91498   -764.06133    1.0040172        0.795 
  411000    1465.9935   -4022.0312    3.3256602   -3371.3789    298.85048    805.41065   0.99882525       0.7945 
  412000    1469.4886   -3988.1044    4.8386264   -3276.9157    326.09973    1125.1287    1.0056969        0.794 
  413000    1473.0476   -3951.6051     4.830426   -3278.0595    308.72487   -297.50541   0.99384025       0.7935 
  414000    1476.5091   -3988.3536    5.3882503   -3327.5971    302.56303    193.07035   0.98067269        0.793 
  415000    1479.9151   -3977.8507    4.3967966   -3343.9073    290.64199    252.05361   0.99434192       0.7925 
  416000    1483.3939   -4008.3191    2.7408107   -3391.2851    283.59994   -831.16387    0.9805095        0.792 
  417000    1486.9966   -4016.6737    7.6194948   -3355.1751    301.87555   -160.57398    1.0194611       0.7915 
  418000    1490.4231   -4023.2991    6.6972404   -3324.2361     319.6436   -880.59493    0.9922667        0.791 
  419000    1493.9318   -3926.4316    5.5132387   -3263.3051    303.59949    890.55388     1.004488       0.7905 
  420000    1497.4814   -3964.7305    5.2917494   -3341.4222    285.31889   -439.97114   0.96960709         0.79 
  421000    1500.6988   -3969.6554    4.8392745   -3319.3313    298.00012   -169.23227   0.95962844       0.7895 
  422000    1504.0949   -3984.3128    6.8551844   -3326.9812    300.30462    867.08252   0.98816035        0.789 
  423000    1507.8491   -4043.6443    5.5803137   -3385.7532    301.15153    464.91415   0.99418585       0.7885 
  424000    1511.6163   -3997.3435    4.8614837   -3379.0944     283.1819   -301.66655   0.98311053        0.788 
  425000    1515.3931    -3980.438    4.7924535   -3297.8156     312.9329    498.87615   0.98566417       0.7875 
  426000    1519.0623   -3991.4568    5.3799148   -3335.2191    300.48065    78.548941   0.96165619        0.787 
  427000    1522.7163   -4024.0049    3.7778437   -3386.5569    292.54571   -460.05876   0.98531183       0.7865 
  428000    1525.3089   -3976.5303    4.1268755   -3328.6581    297.19711    309.79901   0.99245749        0.786 
  429000    1528.4684   -3986.8712    3.1147651   -3352.1468    291.59441    543.02689   0.99467987       0.7855 
  430000    1531.3245   -4019.7569    8.5345096   -3376.7155      292.932    235.80587    1.0140934        0.785 
  431000    1534.8968   -4011.7573    4.5049298    -3382.191     288.5713    280.79665   0.98719652       0.7845 
  432000    1538.1011   -3977.5893    5.2969075   -3331.4369    295.86297   -286.16396   0.99113727        0.784 
  433000    1542.0848   -4031.6558     8.507567   -3379.5821    297.11433    110.43282   0.99449421       0.7835 
  434000    1545.8373   -4042.0308    8.4776584   -3328.6982    325.40952    363.94787   0.99907811        0.783 
  435000     1549.743   -3970.3342    3.8473277   -3310.5046    302.84649   -680.79514   0.99869788       0.7825 
  436000    1553.6245   -4018.9881    3.4145738   -3346.8257    308.73998    694.92786    1.0051789        0.782 
  437000    1557.4472   -4028.1807    4.2066191   -3415.3714    280.97283   -936.96617   0.99277883       0.7815 
  438000    1561.2299   -4024.2801    9.5876293   -3366.0026    299.47984   -854.18096   0.99195865        0.781 
  439000    1565.1111    -3955.417    6.2353354   -3303.0525    298.29763    183.05974    1.0095725       0.7805 
  440000    1568.9731   -4019.5076    4.2835713   -3339.4713    311.97391   -192.93383   0.99504848         0.78 
  441000    1572.9505   -3972.6955    7.5028789   -3308.4418    303.20134   -582.50658   0.99399827       0.7795 
  442000     1576.777   -3981.2984    5.9269072   -3341.0386    292.85164   -121.31319   0.99046577        0.779 
  443000    1580.5846   -3991.4301    8.4485243   -3311.3052    310.09199   -510.95704    1.0022771       0.7785 
  444000    1584.4893   -3979.4274    9.2552679   -3304.5378    307.30259   -323.41434   0.97130954        0.778 
  445000    1588.2428   -3990.8355    4.5648208   -3355.8139    291.06219    58.197407   0.98529196       0.7775 
  446000    1592.0119   -4003.3939    5.5959229    -3368.371    290.58674   -1.1172993   0.99065409        0.777 
  447000    1595.8011   -4015.3284    4.7061159    -3373.643    294.07344   -825.85621   0.98174049       0.7765 
  448000    1599.5352   -3972.9527    5.5628231   -3299.2082    308.47857    1008.9492   0.98430347        0.776 
  449000    1603.3056   -4030.3385    6.6209125   -3384.8424     294.9487    68.905957    1.0027413       0.7755 
  450000    1607.0792   -4003.6146    7.4111307   -3332.7679    306.28748    150.22224    0.9710639        0.775 
  451000     1610.868   -4018.0026    5.7253484   -3363.8551     299.3562    -288.4105   0.99675019       0.7745 
  452000    1614.6254   -4037.7368     6.878628   -3402.6766     290.0118   -201.84508   0.98712312        0.774 
  453000    1618.4099    -4002.768    6.8790443   -3334.6274    305.28376    327.51506   0.97652414       0.7735 
  454000    1621.6887   -3989.0188    5.1597057    -3321.356    305.85695    143.18046   0.98463453        0.773 
  455000    1625.4245   -3940.3722    8.3928277   -3269.1339    306.01505   -626.17662   0.97273915       0.7725 
  456000    1629.2284    -3999.624    5.6356114   -3376.4423    285.10171    1121.7343    1.0033358        0.772 
  457000    1632.9766    -3982.775    6.2757668   -3297.8838    313.29551   -88.540012   0.98755534       0.7715 
  458000    1636.7583   -3949.7069    7.4239549   -3293.1083    299.70364   -161.93907   0.99026113        0.771 
  459000     1640.588   -4002.6953    5.5044706   -3378.9928    285.40269   -123.96797    1.0134888       0.7705 
  460000    1644.3777   -3978.4855    8.2040703   -3329.3073    295.91771     717.9893    0.9957532         0.77 
  461000    1648.2937   -3958.5315    7.3044812   -3310.5433    295.78365    -829.0883   0.98036861       0.7695 
  462000    1652.0974    -3990.415    6.4263748   -3355.3436    290.22572   -504.12211    1.0190983        0.769 
  463000         1656   -4055.9368    6.0726846   -3417.1112    292.12221   -453.18674   0.98697611       0.7685 
  464000    1659.8998   -3989.7168    7.9238334   -3343.9491    294.47259   -583.09905    1.0019244        0.768 
  465000    1663.8527   -4028.2361    7.5046855   -3362.4896    303.88967   -504.10771   0.98550402       0.7675 
  466000    1667.7438   -4068.2454    4.3998357   -3422.3888    296.14056    440.21576    1.0066726        0.767 
  467000      1671.72   -4005.8022    5.5708407   -3356.2511    297.30552   -307.52434   0.99184517       0.7665 
  468000    1675.6388   -4040.2511    5.0120237   -3389.1158    298.29493   -24.258696   0.98972347        0.766 
  469000    1679.4451   -4004.9493    7.0396916   -3385.9682    282.51419    102.64953   0.97219284       0.7655 
  470000     1683.325   -3986.9477    6.6120323   -3315.9678    306.71784   -920.21205   0.98836007        0.765 
  471000    1687.1213   -4034.0786    4.7560073   -3369.6305     304.5592   -13.119197   0.99374336       0.7645 
  472000     1690.737   -3963.2923    6.2029215   -3329.7357    289.62959   -1245.3156    0.9837542        0.764 
  473000    1693.0915   -4002.7578    5.9465422   -3327.8808    308.82424    -224.9296    1.0136604       0.7635 
  474000     1695.476    -3997.041    4.9807201   -3347.5877    297.53281   -375.48935    1.0010539        0.763 
  475000     1698.377   -3999.9613    5.0444123   -3362.8764    291.79334    1293.8406    1.0116197       0.7625 
  476000    1702.1388    -3955.498    7.7376882   -3297.5907    300.16296   -819.91594   0.99138248        0.762 
  477000    1706.0451   -4046.6124    7.1798236   -3367.3819    310.26479    1047.7902    1.0089341       0.7615 
  478000     1709.797    -3989.562    4.3839007   -3328.8072    303.02592    573.13833   0.97260466        0.761 
  479000    1713.5016   -3992.2147    6.2661852   -3316.6797    308.98047    1068.4217   0.95983056       0.7605 
  480000    1717.3174   -4020.8484    4.0010612   -3418.9638    276.02414   -347.63791   0.98007495         0.76 
  481000    1721.2278   -4030.1674     7.414244   -3375.9772    298.59622   -312.83411    0.9767476       0.7595 
  482000    1725.0452   -4014.4818    5.2453992   -3356.1468    301.51102   -60.852969   0.98684147        0.759 
  483000    1728.8427   -3982.9431    8.2586469   -3307.2597    308.12916    1290.4775   0.97989811       0.7585 
  484000    1732.7954   -3962.3155    10.464693   -3323.9535    289.88056   -916.45335   0.98560599        0.758 
  485000    1736.6861   -3997.3359    4.1294565    -3338.304    302.34798   -1017.5852   0.97304568       0.7575 
  486000    1740.6799   -4026.6323     6.700842   -3370.5526    299.79793    942.68724     0.997234        0.757 
  487000    1744.5289   -3987.9115    6.5864152   -3333.3966    299.12831   -317.51559   0.98863326       0.7565 
  488000    1748.2648   -3957.1965    5.4099072   -3327.7281    288.10827    -795.3193   0.97844083        0.756 
  489000    1752.0604   -3956.5612    8.6267724    -3298.402    299.86879    646.88299   0.99371976       0.7555 
  490000    1755.8096   -4008.8466    4.8097747   -3352.9293    300.59599    124.14906   0.99319829        0.755 
  491000    1759.6787   -4012.1012    4.4398879   -3337.6753     309.3116    292.33215   0.98743948       0.7545 
  492000    1763.5704   -4039.3561    7.3910662   -3404.3582    289.74648    223.16023    1.0112765        0.754 
  493000    1767.3721   -4064.0473    6.2852464   -3385.6134    310.30999    1640.3094    1.0357958       0.7535 
  494000    1771.1753   -4028.0215    6.8113396   -3374.5112     298.5607    183.12517    0.9841869        0.753 
  495000    1774.9352   -4006.8593    6.4961023   -3343.1739    303.40372   -412.48033   0.99277984       0.7525 
  496000    1778.6998   -4095.1092    8.9881852   -3476.7902    281.30895     1438.336    1.0001549        0.752 
  497000    1782.2008   -4057.6307    5.3535422   -3414.8407    294.28448    500.36642    1.0065339       0.7515 
  498000    1785.9085   -4000.8774    7.0519595   -3298.3167    321.09467   -290.62441   0.95731741        0.751 
  499000     1789.636   -3999.4303    7.6357538   -3352.4866    295.14852    814.11373   0.97202916       0.7505 
  500000     1793.572   -3989.1227    8.6335576   -3320.1112    304.87587   -190.44736   0.98356288         0.75 
  501000    1797.0374   -4026.8038    8.2298124   -3373.7329    297.70299   -180.67639   0.98807986       0.7495 
  502000    1800.4018   -4027.8144    6.3022967   -3364.4378    303.35067   -266.76891    1.0038569        0.749 
  503000    1803.8313   -3985.7155    5.1495283   -3333.2434    298.84861   -947.43655    1.0017085       0.7485 
  504000    1807.2915   -4016.2278    7.4889612   -3382.4536    289.13632   -519.97394    0.9745169        0.748 
  505000    1810.7799   -3984.1262     5.748534   -3323.8442    302.17762   -787.23215   0.99224807       0.7475 
  506000    1814.2214    -4028.071    7.0253712   -3356.1204    306.97517    346.16834   0.99231374        0.747 
  507000    1817.6972   -4005.6537    8.0611633   -3326.0257    310.04143    82.564672   0.99336397       0.7465 
  508000    1821.1576   -4038.1932    4.5376242   -3390.0213    297.14581      730.698    1.0014226        0.746 
  509000    1824.5802   -3981.6715    8.9789903   -3297.4182    311.75301    75.960901   0.97758523       0.7455 
  510000    1827.9764   -4008.2576    6.9082771   -3358.3738    296.84169    787.20938   0.99024998        0.745 
  511000     1831.424   -4031.8583    4.9359987   -3395.7604    291.38772   -331.82521   0.97933369       0.7445 
  512000    1834.8739   -4072.1475    5.6892697   -3419.4732    298.69276    656.02025    1.0017957        0.744 
  513000    1838.3193   -4042.7326    3.9276481    -3381.865    303.28861    601.56584   0.99996151       0.7435 
  514000    1841.7762   -3938.2228    4.8468207   -3255.3757    313.01149    1607.0434   0.99539717        0.743 
  515000    1845.2009   -4019.6528    6.4527579   -3362.8597    300.24182    754.92862   0.99955373       0.7425 
  516000    1848.6354   -4010.2618    4.3876987   -3357.3178    299.41817    778.28398    1.0181086        0.742 
  517000    1851.9928   -3966.5793    6.2980521   -3307.7494    301.25351    865.96867   0.99302357       0.7415 
  518000    1855.3202   -4051.2014     7.900996   -3408.9851    292.84355   -435.79337    1.0037336        0.741 
  519000    1858.7821   -4014.4828     5.128195   -3341.3484    308.39756   -49.266808    0.9829749       0.7405 
  520000     1862.218   -3992.0241    7.1609617   -3362.7994     287.1874   -77.651391   0.97172258         0.74 
  521000    1865.9179   -3953.6149    5.5660071   -3274.9691    310.73988   -193.45352   0.94634381       0.7395 
  522000    1869.6575    -3986.663     6.504769   -3347.3944    292.12727   -494.38193   0.97351345        0.739 
  523000    1873.5438   -4062.4152    7.2041309   -3416.1744    295.02327   -195.52243   0.99623854       0.7385 
  524000    1877.4273   -4005.1483    6.3302184     -3358.49    295.61943    144.77802      1.00792        0.738 
  525000     1881.295   -4079.7384    4.4112017   -3431.5314    297.22034   -636.02637    1.0128876       0.7375 
  526000    1885.1332   -3999.6337    6.6398707   -3350.9164    296.42707   -505.04935   0.99760666        0.737 
  527000    1889.0095    -4014.158    6.8859386   -3349.1132    303.85139    585.89416   0.99080165       0.7365 
  528000     1892.976   -4066.4087    6.4153689   -3440.6286    285.94135   -522.23136   0.98134209        0.736 
  529000    1896.8466   -3971.9097    7.6579121   -3304.5524    304.56261    -377.4555   0.97829553       0.7355 
  530000     1900.759   -4016.0303    7.1791364   -3384.0815    288.43659    1171.4851    0.9902562        0.735 
  531000    1904.6759   -4025.8989    5.8750056   -3379.2111    295.84325   -241.40301   0.98416442       0.7345 
  532000    1908.5589   -4011.0829    4.4423005   -3419.2929    271.16008    -1280.159   0.98016886        0.734 
  533000    1912.4034   -3960.5183    3.8738174   -3310.7253    298.20073    214.58422   0.98754855       0.7335 
  534000    1916.3245   -4006.0678    5.6096632    -3354.726     298.1143    604.52677   0.99727586        0.733 
  535000    1920.0141   -4026.6689    7.1320808   -3372.3163    298.80145    1002.3835   0.99834465       0.7325 
  536000    1923.0545   -3983.6853    8.7877582   -3295.7636    313.53493    -386.0768    0.9815997        0.732 
  537000    1927.0084   -4000.3079    4.8966399   -3328.5597    307.86448   -667.18685    0.9917325       0.7315 
  538000     1930.818   -4020.5353    7.0088497   -3378.4287    293.20479   -984.50506   0.98267199        0.731 
  539000    1934.7035   -3933.2629    7.3176146    -3322.092    278.78017   -119.39691    0.9749342       0.7305 
  540000    1938.5765   -4042.4712    3.1471877   -3387.4458    300.95178   -424.59965    1.0137433         0.73 
  541000     1942.343   -3999.1778    3.7932714     -3387.14    280.80747     593.7037   0.98289538       0.7295 
  542000    1946.1702   -4017.7478    4.9685261   -3383.5978     290.4734    135.68132   0.99044008        0.729 
  543000    1950.0444   -3943.3953    5.8943506   -3305.4446    291.80067    350.18899    1.0155179       0.7285 
  544000    1953.8653    -3999.346    5.0598172   -3371.8514    287.35864    280.21554   0.99479177        0.728 
  545000    1957.6333   -4058.3156    5.4447727    -3350.639    324.19845    290.71011   0.97875846       0.7275 
  546000    1961.3467   -4006.1777    3.5870033   -3361.7089     295.8751    886.93087   0.97640493        0.727 
  547000    1964.9982   -3974.5593     4.912413   -3320.4356    299.72054   -579.94483   0.96828353       0.7265 
  548000    1968.8137   -3989.4302    4.7599867    -3355.582    290.43035    528.82211   0.98490516        0.726 
  549000    1972.5825   -3995.8904    5.4154383   -3325.4308     307.0301    -41.73581   0.99278971       0.7255 
  550000    1976.4644   -4009.1102    6.1293682   -3378.9314    288.10408   -1112.7514   0.97785452        0.725 
  551000    1980.3154   -3996.3281    3.1195991   -3338.9678    302.04247   -754.61044   0.99490013       0.7245 
  552000    1984.1489   -3986.1123    5.2437115     -3333.53    298.85597    707.97139   0.99111454        0.724 
  553000    1987.9409   -4029.2454    2.8940235   -3371.7986    302.18653   -302.40849   0.99975455       0.7235 
  554000    1991.6697   -4017.2857    3.6154312   -3357.9277    302.73583   -176.57111   0.98062639        0.723 
  555000    1995.4281   -4006.8518    3.6230927   -3392.1367    282.12205   -768.37881   0.97271597       0.7225 
  556000    1999.1543   -3970.7665    5.1571568   -3334.5598    291.33586    814.64098   0.98759315        0.722 
  557000    2002.8857   -3998.9835    4.3694706   -3328.7522    307.40761    692.81128   0.98157171       0.7215 
  558000     2006.659   -4021.1137    4.8617403   -3350.5197    307.34778    657.93844   0.99147171        0.721 
  559000    2010.3966   -3951.5448    7.2933317   -3285.6336    304.06329    934.92028   0.98589036       0.7205 
  560000    2014.1138   -4003.9908    5.3296577   -3345.4934    301.54711    252.15525   0.99061053         0.72 
  561000    2017.8192   -3999.5966    7.1589206   -3352.1392    295.60578    308.82448   0.97434757       0.7195 
  562000    2021.5914   -4032.0194    3.3226371   -3383.5225    297.85681    517.91794    1.0220274        0.719 
  563000    2025.3796   -4035.0712    2.9816617   -3412.6528    285.97458   -419.60608   0.99074429       0.7185 
  564000    2029.1264   -4041.5463    4.4522936   -3390.4936    298.51515    -621.6938   0.99003045        0.718 
  565000    2032.8808   -4019.6036    3.7722484   -3367.1517    299.47514    832.73084    1.0018406       0.7175 
  566000    2036.6495   -4082.9343    5.5922017   -3451.0564    289.13652   -1131.6125   0.99085999        0.717 
  567000    2040.4035   -4002.6763     6.804599   -3340.3585    302.62994   -470.48604    1.0043332       0.7165 
  568000    2044.1817   -4022.1027    6.3556573   -3377.5067     294.6556     252.1297    1.0096305        0.716 
  569000    2048.0421   -4004.2136    6.5630316   -3365.8983    291.66028    1743.7251    1.0013524       0.7155 
  570000    2051.8371    -3932.528    6.8819441   -3269.5322    302.90722    191.04434   0.97449047        0.715 
  571000    2055.5284   -4025.9483    5.8531852   -3354.5227    307.27399    747.02899   0.99019875       0.7145 
  572000     2059.303   -4015.7967    5.4596584   -3345.8815    306.75835    106.62246   0.98191964        0.714 
  573000    2063.0706   -3980.4736    6.7082686   -3313.2311    304.94798    464.21501   0.98758149       0.7135 
  574000    2066.9175   -4018.8671    7.6015155   -3365.2467    298.24674    672.38843   0.97074595        0.713 
  575000    2070.6158   -4051.2198    6.4678024   -3402.8598    296.34154    41.745885    1.0047314       0.7125 
  576000    2074.3316   -3966.0779    3.8195495    -3318.264    297.31201    73.643471   0.99623557        0.712 
  577000    2078.0914   -4038.4134    5.0222037   -3375.5701    303.69541   -826.94911    1.0036789       0.7115 
  578000    2081.8948   -4032.0209    5.9370904   -3347.3553    313.34769   -526.52522    1.0249421        0.711 
  579000    2085.6543   -3965.8012    3.9655096   -3330.0327    291.68369    340.18555   0.99106668       0.7105 
  580000    2089.3747   -4056.9961     5.385886   -3391.5716    304.71918   -592.15532   0.96256207         0.71 
  581000    2092.9914   -3996.7578     3.073661   -3323.6239    309.34588    847.23878   0.99691468       0.7095 
  582000    2095.8291   -4060.6852    2.9942635   -3410.5145    298.78111    453.56732   0.99899122        0.709 
  583000    2098.2785   -3980.6245    5.8010096   -3314.7096    304.75397   -115.50063    1.0013065       0.7085 
  584000    2101.8732   -3943.8832     7.744832   -3281.5978    302.18092     727.9451   0.99882217        0.708 
  585000    2105.4706   -3950.3478     5.170267   -3318.5615    289.28906   -523.58319   0.99008646       0.7075 
  586000    2109.2499   -4047.1679    6.0662052   -3407.1778    292.66283    173.79502    1.0050089        0.707 
  587000    2113.0956   -4048.7273     3.496732   -3401.6378    297.12666   -938.41977   0.99049887       0.7065 
  588000    2116.9107   -4011.7032    4.1349992   -3355.9118    300.84937    549.29552    0.9995553        0.706 
  589000    2120.6096   -4001.2687    3.7784685   -3345.3037    301.09412    160.58606   0.98539267       0.7055 
  590000     2124.379   -4008.6016    4.9790045   -3364.7233    294.95984    342.12537   0.99477819        0.705 
  591000    2128.2434    -3993.612    4.8138112   -3340.9796    299.07755    818.28131   0.99048958       0.7045 
  592000    2132.0097   -3974.0367    5.1451516   -3321.9329    298.68059    452.04024   0.97808163        0.704 
  593000    2135.7746   -3978.4234    4.1099143   -3320.0414    302.05695   -1152.5917    1.0085468       0.7035 
  594000    2139.5993   -3994.1866    3.9309875   -3333.7881    303.07051    966.32541    1.0064032        0.703 
  595000    2143.3713   -4036.0166     5.701989   -3347.6004    315.18781   -245.38969    1.0008519       0.7025 
  596000    2147.1468   -4034.1475    5.5809449   -3367.8398    305.03691    79.865116   0.99780816        0.702 
  597000    2150.8821   -4023.6207    5.9698909   -3388.0322    290.67522    69.628074   0.99824429       0.7015 
  598000     2154.595   -4033.5543    2.9930306   -3345.6287    316.21195    550.29312   0.98964115        0.701 
  599000    2158.3096    -4003.614    5.9441155   -3336.6002    305.19522    739.48021   0.98893028       0.7005 
  600000    2162.0714   -3993.9296    5.1898404   -3274.8721     329.5704   -994.45212   0.97665629          0.7 
  601000    2165.5363   -4006.2903    3.8360493   -3390.2737    282.62465     280.2877    1.0021759       0.6995 
  602000    2168.9291   -4011.6729     5.216521   -3366.1564    295.60647    510.69799    0.9923427        0.699 
  603000    2172.3315   -3972.0446     7.148168   -3263.3909    323.86317    994.75484   0.99491446       0.6985 
  604000    2175.7499   -3981.1291    5.7994827   -3344.3959    291.28237   -171.44021   0.97995559        0.698 
  605000    2179.1047   -3978.8691    10.624971   -3297.0347    309.87642    1302.1956    1.0007039       0.6975 
  606000    2182.5473   -4039.9932    7.4484152   -3432.8538     276.8586    -999.9116   0.98160725        0.697 
  607000     2185.964   -3982.0513    6.2313799   -3328.4709    298.86079    373.89675   0.99764469       0.6965 
  608000     2189.439   -4078.4201    7.0889754   -3419.7434    300.81768   -236.80204     0.990118        0.696 
  609000    2192.9324   -3994.0656    4.5615255   -3323.6217    307.41704   -49.249068   0.98632588       0.6955 
  610000    2196.3793   -3973.9368    4.8310035   -3317.5188    300.81731    219.40739   0.96729405        0.695 
  611000     2199.864   -3967.5651    8.6717113   -3329.8649     290.4028    875.07065    1.0007987       0.6945 
  612000    2203.3705   -4024.0164    6.2686014   -3366.6354    300.59823    294.02001     1.012969        0.694 
  613000    2206.8743   -3989.6724    5.0949456   -3309.2435    311.78061   -458.91229   0.98961144       0.6935 
  614000    2210.3896   -4010.3578    8.9520381   -3307.3428    320.42714    654.29022   0.99111236        0.693 
  615000    2213.9162   -4054.5874    6.1633361   -3382.1798    307.58418   -943.96512   0.98504449       0.6925 
  616000    2217.3945   -4007.3383    6.0082954   -3355.4622    298.17699   -227.03209   0.99712122        0.692 
  617000    2220.8855   -3983.8911    5.6660692   -3322.3079    302.81644   -430.65293   0.98551763       0.6915 
  618000    2224.4178   -3985.5537    5.1522183   -3353.7347     289.3125   -237.50267   0.98583338        0.691 
  619000    2228.0119   -3950.4654    8.4080725   -3283.0308    304.25196   -113.24781   0.96771635       0.6905 
  620000    2231.4888   -3985.3077     4.736549   -3325.8003    302.28722   -384.48969    0.9747296         0.69 
  621000     2235.184   -3994.7322     3.518642   -3321.4171    309.22411    589.11841   0.99521079       0.6895 
  622000    2238.9213   -3985.8222    6.3001182   -3305.3233     311.2565    1033.6499   0.97915722        0.689 
  623000    2242.6868   -4003.9393    6.0164598   -3337.9615    304.68349    266.60156     0.982361       0.6885 
  624000     2246.491    -3988.143    6.9627083    -3335.246    298.20765   -867.28874   0.99113907        0.688 
  625000    2250.3157   -4027.3533    7.4225327   -3355.6186    306.69212    -533.5211   0.99717761       0.6875 
  626000    2254.1043   -3961.4339    8.0465105   -3336.2293    284.92259   -929.48535    1.0010186        0.687 
  627000    2257.9863   -4038.3853    9.3620613   -3345.8889    315.38177    177.28815   0.98803867       0.6865 
  628000    2261.8504    -3997.536     6.650993    -3336.289    302.20648    813.46986    0.9944079        0.686 
  629000    2265.6174   -4018.4186     6.035035    -3369.911    296.60948    446.33164   0.99855248       0.6855 
  630000    2269.4465   -4077.6237    5.5221686   -3442.5012     290.6668     572.7859    1.0051817        0.685 
  631000    2273.2166   -4042.2079    6.6601764   -3402.0198    292.48003    55.864322   0.99462435       0.6845 
  632000    2276.9363   -3987.5567     8.934795   -3361.2761    285.00925   -942.73179   0.96446072        0.684 
  633000    2280.6258   -3983.6473    6.8034097   -3326.0836    300.43568    525.30922   0.99831992       0.6835 
  634000    2284.3901   -4001.4655    6.7947385    -3348.303    298.40779   -344.66708    1.0107559        0.683 
  635000    2288.1362    -4018.164     5.047685   -3352.8679    304.81606    885.25936   0.99380814       0.6825 
  636000    2291.9475   -3999.5845    7.1470027   -3354.8477    294.35523   -201.91428    1.0077128        0.682 
  637000    2295.8052   -3963.2964    5.6290925     -3271.73    316.67576    374.34943    0.9925717       0.6815 
  638000    2299.6921   -3954.9715     9.304378   -3321.0652    288.35915   -144.96007   0.98767551        0.681 
  639000    2303.5089   -3984.3271    6.3160177   -3330.9535    298.72629   -717.35978     1.003604       0.6805 
  640000    2307.3751   -3945.2599    7.8232683   -3286.4363    300.54647    133.76511    0.9922564         0.68 
  641000    2311.1951   -3980.6104    5.5071898   -3323.6746    300.74418    -857.8314   0.96837533       0.6795 
  642000    2314.9783   -4021.5516    5.6196394   -3398.5448    285.02831   -495.60702   0.98660689        0.679 
  643000    2318.7697   -4006.0877    5.6095277   -3364.7703    293.48644    123.29301   0.99594247       0.6785 
  644000    2322.6134   -4013.4477    5.4766983   -3330.1293    312.93832     1194.845    1.0090707        0.678 
  645000    2326.3809   -4041.1962    4.1473578   -3391.9158    297.83775   -1123.0234   0.99042008       0.6775 
  646000    2330.1749   -3958.9713     4.234319   -3311.7967    296.82539    150.12931   0.99499613        0.677 
  647000    2333.9485   -3959.9878    4.6704293   -3308.4529    298.63711    343.11336    1.0174579       0.6765 
  648000    2337.7176   -3982.5506    6.0770872   -3351.0026    288.76033     524.1183   0.99924661        0.676 
  649000    2341.4934   -3941.5264    6.6579444   -3291.2625    297.13274   -987.58149   0.98152918       0.6755 
  650000    2345.2385   -4023.2798     3.754695   -3372.6144    298.65843     199.1924   0.99664542        0.675 
  651000    2349.0724   -4034.2783    5.5683052   -3407.7323    286.68599   -576.99569   0.98868005       0.6745 
  652000    2352.8205   -4056.4645    4.3885609   -3421.5702     291.0848    -519.5574   0.99355994        0.674 
  653000    2356.6213   -3968.1083    7.1809936   -3317.2153    297.18168    372.62221   0.99898603       0.6735 
  654000    2360.4194   -4014.5569     3.258183   -3372.7119    294.81561   -194.65082    0.9853153        0.673 
  655000    2364.2792   -3980.6979     5.044924   -3324.9541    300.40736    423.63335   0.99048865       0.6725 
  656000    2368.0306   -3968.1069    4.5668786   -3306.6664    303.25802    504.37744   0.97068496        0.672 
  657000    2371.7787   -3998.1466     5.372187    -3338.418    302.09588   -498.46147    0.9940185       0.6715 
  658000    2375.5216   -4046.6872    4.6476539    -3415.859    289.08801   -228.86145   0.96732446        0.671 
  659000    2379.4546   -4005.1645    4.2219512   -3331.2615    309.17078   -322.08601   0.98343438       0.6705 
  660000    2383.2712   -4013.1455    6.0481958   -3363.3107    297.21613   -641.51575   0.98195508         0.67 
  661000    2387.0645   -4022.3064      6.39258   -3368.2322    299.01433   -20.789066   0.99411854       0.6695 
  662000    2390.8313   -3976.2851    5.1526029   -3299.3024    310.16292   -1114.3917   0.98683036        0.669 
  663000    2394.5958   -3989.1221     4.692031   -3340.0535    297.48852   -1183.6225   0.97318703       0.6685 
  664000    2398.4598   -4027.0931    5.7680844   -3375.6325    298.09605    1045.5159     1.002079        0.668 
  665000     2402.281   -4064.1411    5.4916083   -3416.2219    296.58873   -160.08153   0.99836611       0.6675 
  666000    2406.1365   -4030.2176    5.1990559    -3402.509    287.39317   -1081.6482   0.98610141        0.667 
  667000    2409.9672   -3996.9544    5.9143353   -3374.9941    284.40912     650.4143   0.98973809       0.6665 
  668000    2414.0152   -4021.0899    6.5482881   -3373.5479    295.92674   -1150.6922   0.98753776        0.666 
  669000    2417.9575   -4042.1674    6.4711356   -3394.2955     296.1147    917.51521    1.0068174       0.6655 
  670000    2421.9047   -4016.7385    4.4105449   -3336.6585    311.93548   -507.88548    1.0149701        0.665 
  671000    2425.7917   -3983.4436    2.6258909     -3313.27    308.18591    -202.6731   0.99018675       0.6645 
  672000    2429.6188   -3991.5224    3.8158492   -3323.9663    306.42814    977.48413    1.0026941        0.664 
  673000    2433.4859   -3971.7234    4.8111058   -3363.1786    278.72499    451.94947    0.9916807       0.6635 
  674000     2437.268    -3986.048    6.3689414    -3319.463    304.80108   -299.50745    1.0012018        0.663 
  675000    2441.0755   -4022.3618    4.5880958   -3383.1922    292.96644   -107.23646    1.0111068       0.6625 
  676000    2444.9745   -3962.6608    5.1903999     -3289.26    308.49182    -1007.017   0.97044462        0.662 
  677000    2449.1052   -4023.7712    5.4517697   -3385.0903    292.34208    604.36846    1.0197159       0.6615 
  678000    2452.9476   -3953.5254    10.108645   -3290.4812    301.43995    1084.7452    1.0014155        0.661 
  679000    2456.7085    -3981.068    7.2911489   -3310.4615    306.23197    320.70973   0.99709754       0.6605 
  680000    2460.2782   -3991.6566    5.7147615    -3346.236    295.33217   -270.97421   0.96819994         0.66 
  681000    2463.2684    -3982.716     6.241583   -3328.1467    299.31263    435.43782   0.99275637       0.6595 
  682000    2466.0156   -4035.4116    5.0629588   -3376.0321    302.07748   -588.46615   0.99793749        0.659 
  683000     2469.339   -4010.4039    5.7666196   -3375.8076    290.31099    279.16103   0.98300182       0.6585 
  684000     2471.894   -3988.5121    8.1115793   -3298.2298    314.93689   -393.78977   0.98346363        0.658 
  685000    2475.6284    -3991.035    5.9274867   -3337.7444    298.86729   -615.28282   0.97822021       0.6575 
  686000    2479.5199   -4052.5739    6.1880739   -3369.9216    312.30238   -205.56389   0.99763451        0.657 
  687000    2483.3535   -4012.2725    6.2013039    -3378.822    289.58136   -50.018717   0.99057365       0.6565 
  688000    2487.2563   -3974.0487    3.2882746   -3314.4296    303.00738   -25.345215   0.98058944        0.656 
  689000    2491.0604   -4058.9967    4.1669328    -3410.717    297.36671   -1212.1873   0.99830787       0.6555 
  690000    2494.8396   -3999.0369    7.9405346   -3376.2868    283.83838   -921.15059    1.0014133        0.655 
  691000    2498.6299   -3960.4705    4.8063674   -3300.3575    302.53457    657.04245     1.009728       0.6545 
  692000    2502.4129   -3933.0526    5.6324389   -3291.8712    293.41308      993.961     1.019361        0.654 
  693000    2506.2315   -3982.2811    5.0797633   -3327.7719    299.82129   -1140.5301    0.9980684       0.6535 
  694000     2510.198   -4013.7811     3.977926   -3371.7421    294.57283   -1975.3368   0.97256425        0.653 
  695000    2514.2322   -3987.9231    3.8340514   -3336.1833    299.11782    -783.8603   0.98172804       0.6525 
  696000    2518.1854   -4049.8968    6.9499528   -3387.2915    302.69558    167.17831   0.99446295        0.652 
  697000    2522.1241   -3955.4696    4.4045827   -3291.0199    304.72219    374.42939   0.98706919       0.6515 
  698000    2525.9974   -3984.6542    7.9449212   -3329.9068    298.60846    11.600242    0.9786568        0.651 
  699000    2529.7588   -3984.3417    6.3632899   -3321.5443    303.05511    610.34412    0.9791259       0.6505 
  700000    2533.5845   -4031.2552    2.6955027   -3316.5394    328.71748    501.47062   0.97889334         0.65 
  701000    2537.0451   -3982.9016    3.8936698   -3312.7133    307.60736     327.9271   0.99338225       0.6495 
  702000    2540.5221   -3960.4694    6.3440845   -3314.2301    295.41962    859.12015    1.0119015        0.649 
  703000     2543.942   -3978.3184    6.0943211   -3325.2116    298.70545   -1261.5565   0.98888644       0.6485 
  704000    2547.3914   -4038.7629    5.3451278     -3376.52    303.26914    64.658599    1.0091819        0.648 
  705000    2550.2166   -4043.4595    6.5633426   -3371.7294    307.08669   -518.07042   0.99240552       0.6475 
  706000    2553.3235   -4038.0228    6.4466785   -3361.9057    309.16589   -1012.3893   0.99324253        0.647 
  707000      2556.71   -4052.6776    5.3480446   -3440.4685    280.16875   -1402.4509   0.98871559       0.6465 
  708000    2560.2072   -4049.4658    4.9656455    -3393.734    300.43839    619.03655    1.0001816        0.646 
  709000     2563.642   -3975.5469    5.2826107    -3293.866    312.27193    -9.356185   0.98902191       0.6455 
  710000    2567.0495   -3969.3909    5.0867528   -3320.4878    297.22987    377.36835   0.99965876        0.645 
  711000    2569.5486   -3956.4154     3.324774    -3323.049    290.87052    517.28325    1.0030262       0.6445 
  712000    2572.1408   -3989.7057    2.7799276   -3347.3661    295.26469    454.56958   0.97371791        0.644 
  713000    2575.0332   -4018.0521    3.9541798   -3356.1082    303.77328    435.33793   0.99023082       0.6435 
  714000    2578.3033   -4035.8452    3.6114113   -3372.1373     304.7459   -429.61308    0.9765381        0.643 
  715000    2581.5427   -3975.5412    5.4081416    -3283.217    317.12764   -1261.4455   0.97736816       0.6425 
  716000    2584.8701   -3985.5592    3.7832743   -3356.4131    288.71046    534.74576    1.0129822        0.642 
  717000    2587.4984    -3976.105    5.9224564   -3339.9651    290.95168   -44.872207     1.003384       0.6415 
  718000    2590.8302   -4020.2821    7.0689904   -3383.0746    290.91522   -353.06283   0.99959341        0.641 
  719000    2594.1713   -4000.4321     5.416588   -3359.1725    293.54882    190.42003    1.0037319       0.6405 
  720000    2597.4779   -4059.9669    6.0734772   -3405.1044     299.5256   -689.93563     1.003095         0.64 
  721000     2600.712   -3992.7982    5.5527527   -3327.1622    304.73977    316.29721   0.99838875       0.6395 
  722000    2604.5507   -4004.4103    7.0288459   -3368.4176    290.37297   -948.97224   0.99251942        0.639 
  723000    2608.3045   -4008.9716    5.1310887   -3341.7856    305.65005   -397.38567    0.9909773       0.6385 
  724000    2612.0389   -3996.0387    4.2134349   -3376.5858    284.03682    140.36272    1.0075336        0.638 
  725000    2615.7486   -4005.9403    6.1603383   -3343.8714    302.81249   -132.65795   0.98767048       0.6375 
  726000    2619.5177   -4028.5084      7.32616   -3363.0648    303.83221     1052.659    1.0198942        0.637 
  727000    2623.3302   -3983.0782    7.4525648   -3361.1601    283.67955    578.83931    1.0010817       0.6365 
  728000    2627.0116   -3969.5333    7.4556956   -3316.3391    298.11727   -923.83517   0.98842922        0.636 
  729000    2630.3152   -4009.9576    6.6151766   -3319.4039    315.75303    123.97306   0.98793127       0.6355 
  730000    2633.8667   -3997.9099    2.6308951   -3328.4518    307.85324    305.72386    1.0000118        0.635 
  731000    2637.6597   -3975.0347    7.4595663   -3323.7099    297.25244    676.43281    1.0108988       0.6345 
  732000     2641.578   -3954.4308    8.3185249   -3312.1828    292.66538    566.21244   0.99845707        0.634 
  733000    2645.3988   -3971.6039    5.4260244   -3302.5667    306.36853    79.529319   0.96737012       0.6335 
  734000    2649.1274   -4016.2747    6.8077136   -3382.8231     289.3019   -675.38956   0.97028312        0.633 
  735000     2652.951   -3963.9046    4.1754124   -3307.3119    301.20068    -420.6575   0.99250895       0.6325 
  736000    2656.7263   -3953.6762    7.2243839   -3284.4138    305.64227   -1527.2904   0.97447585        0.632 
  737000    2660.5276   -4016.0444    6.3733336   -3357.5474     301.0651    702.11023    1.0040282       0.6315 
  738000    2664.2901   -4020.2081    5.4425159   -3358.0002    303.20805     782.4729    1.0019427        0.631 
  739000    2668.0293   -3958.0479    9.0264919     -3309.73    295.14085   -785.44084   0.97986113       0.6305 
  740000    2671.7764   -3958.1143    7.1287425   -3294.3408    303.15235    642.27065   0.98583731         0.63 
  741000    2675.5084   -3968.0678    4.3739574   -3321.0851    296.67235    922.76815   0.99049364       0.6295 
  742000    2679.1741   -3984.5546    7.4702166   -3316.4627    304.98838   -59.973895   0.95200319        0.629 
  743000    2682.8403   -3964.4042    7.9415249   -3324.9945    291.52909   -1157.5682   0.96079151       0.6285 
  744000    2686.5105   -4023.1793    4.5224071    -3371.593    298.72915    1167.5009    1.0056047        0.628 
  745000    2690.2644    -4009.961    4.7798961   -3367.4368    294.42665    1174.8125   0.97744071       0.6275 
  746000    2693.9548   -3978.8987    5.8036879   -3318.0423    302.41734    1120.7034   0.98261224        0.627 
  747000    2697.7163   -3953.7473    6.5232927   -3288.9204    303.91821    1359.3668   0.98967616       0.6265 
  748000    2701.4658   -3979.2439    9.6804346   -3327.4526    296.44252    489.37666   0.96557659        0.626 
  749000    2705.2595   -3995.3409    10.127418   -3317.3338    308.33914   -680.69092   0.98780231       0.6255 
  750000    2709.0191   -3912.4885    9.3821413   -3256.6166    298.46411   -813.63323   0.98028102        0.625 
  751000    2712.8653   -3998.6155    9.2183046   -3330.1606    304.34893   -384.57179   0.98517496       0.6245 
  752000    2716.6391     -3961.01    6.7964327   -3289.3277    306.95703    575.50139   0.99512426        0.624 
  753000    2720.3174   -4019.3115    8.9374748   -3358.9387     300.7473    1190.9697   0.99132399       0.6235 
  754000    2724.0722   -3961.1975    5.7720974   -3279.6173    311.99948    1254.8767   0.99110393        0.623 
  755000    2727.8206   -3992.4754     7.658039   -3336.7597    299.18796   -1037.8057   0.97714013       0.6225 
  756000    2731.5826   -3949.2697    6.8672578   -3290.5688    300.93121    942.41923   0.97865405        0.622 
  757000    2735.3317   -4049.3129    4.6670389    -3413.422    291.41632   -172.97895   0.99912752       0.6215 
  758000    2739.0519   -4027.2927     6.059467   -3385.5799    293.46124   -412.65602   0.98605313        0.621 
  759000    2742.7662   -4042.1965    5.3114999   -3389.7057    298.78245    625.08558    0.9679853       0.6205 
  760000    2746.3792   -4051.0084    5.8895827   -3386.5246    304.05237    422.06509   0.99859142         0.62 
  761000    2750.1227   -4051.3298    4.9031529   -3381.1497    307.13758   -1339.0998   0.98936573       0.6195 
  762000    2753.9085   -4033.7275    8.0026973   -3399.3222    289.19049    95.546315   0.98935214        0.619 
  763000    2757.7421   -4008.0758    9.1198555   -3348.1749    300.44527   -115.28035    1.0084485       0.6185 
  764000    2761.5206   -3975.0911      9.17073   -3310.7537    302.46994    371.96377   0.98236967        0.618 
  765000    2765.3086    -4023.752     6.406893   -3378.6055    294.88608    696.80939     1.004016       0.6175 
  766000    2769.0942   -3949.7412    9.0387538    -3296.921    297.21379    251.81194   0.97708649        0.617 
  767000     2772.846   -3941.7588    8.6674126   -3245.5377    317.42204    720.30125   0.99506232       0.6165 
  768000    2776.6598   -3974.7866     5.698452   -3314.4218    302.23896   -211.86457    1.0048073        0.616 
  769000    2780.4037     -3992.56    4.4778365   -3331.2956    303.21783     77.38861    1.0022903       0.6155 
  770000    2784.1567   -4047.1996    5.7666499   -3361.8584    313.73835    632.31816     1.005788        0.615 
  771000    2787.8861   -3944.0432    6.8751422    -3255.849    314.54371    541.26578   0.98946872       0.6145 
  772000    2791.6042   -4011.2644    7.5461517    -3354.943    299.51924   -138.94366   0.99597164        0.614 
  773000    2795.3478   -4018.3992    6.4511842   -3371.4543    295.69594    -1440.779   0.97521586       0.6135 
  774000    2799.2497   -4050.7246    6.6612826   -3404.2841    295.36607    38.233945    1.0020473        0.613 
  775000    2803.1731   -4053.0529    6.7896077   -3391.5827    302.24555    217.76255    1.0057438       0.6125 
  776000    2807.0081    -4023.609    8.1855714   -3359.9801    302.59769   -1297.5404    1.0140643        0.612 
  777000     2810.858   -4002.7506    5.8756825   -3353.8737    296.85353    286.61825     1.013742       0.6115 
  778000     2814.671   -4001.8493    4.9967991   -3356.2862    295.72943   -20.221162    1.0102688        0.611 
  779000    2818.4849   -4005.9456    3.9052546    -3349.489    301.26257   -1087.5469    1.0118251       0.6105 
  780000    2822.3346   -4038.8982    3.3595342   -3391.6277    297.27355   -328.06583    1.0092317         0.61 
  781000    2826.1927   -4031.0232    4.3435949   -3327.8109    322.64582    755.27611    1.0200452       0.6095 
  782000    2829.9751    -3993.756    3.1962563   -3315.9188    311.46062   -1603.3436    1.0029712        0.609 
  783000    2833.7533   -3979.2964    4.6755182   -3342.2902     291.9273   -437.27336   0.97482168       0.6085 
  784000    2837.5981   -4011.9671    5.0029698   -3369.1818    294.44415    462.11194    1.0014784        0.608 
  785000    2841.3451   -4037.2554    4.1223922   -3367.4601    307.32036   -1315.3372   0.97540544       0.6075 
  786000     2845.074   -4056.0468    4.1327688   -3353.1972    322.57571    654.88001    1.0001071        0.607 
  787000    2848.8342    -4030.542     3.649706   -3384.2387    296.69306    137.82496   0.99810512       0.6065 
  788000    2852.7442   -4018.5772     4.924067   -3369.3772    297.44207    86.725742   0.99247755        0.606 
  789000    2856.4867   -4015.3754    3.5802901   -3345.7113    307.51003     115.4478   0.98302823       0.6055 
  790000     2860.041   -3992.0837     6.251708    -3368.668     284.9253    291.20018   0.99059052        0.605 
  791000    2863.7206   -3979.3105    3.2048703   -3342.4601    292.53433   -799.42241   0.97118067       0.6045 
  792000    2867.4788   -3993.8808    6.7542832   -3336.1393    300.54044    122.97922   0.97719134        0.604 
  793000    2871.2181   -4008.2617    3.0113352   -3328.2408    312.55415    592.46697   0.99219306       0.6035 
  794000    2874.9184   -3991.7099    3.1113885   -3356.0519    292.02695    348.15497   0.98617208        0.603 
  795000    2878.6632   -3994.2372     5.057839   -3354.3982    293.05863   -148.28509   0.97428869       0.6025 
  796000    2882.4271   -3938.0887    5.7542618   -3285.8441    298.46439    381.93246   0.97780213        0.602 
  797000     2886.198   -3972.8557    4.8948861   -3318.4554    299.85632   -231.13292   0.99883724       0.6015 
  798000      2889.99   -3940.2623     4.885665   -3257.0017    313.18452   -639.11171   0.97963049        0.601 
  799000    2893.7979   -3965.2987    3.2985706   -3305.5202    303.07624    938.72353   0.99266664       0.6005 
  800000    2897.5458   -3985.9227     5.946667   -3340.2752    295.32987   -267.35662    1.0076242          0.6 
  801000    2900.9791   -4007.0222    6.3324923   -3367.4524    292.34588    320.96337    0.9956694       0.5995 
  802000    2904.4899   -3998.6801    3.5101976   -3389.8828    279.44212    246.72304   0.99992503        0.599 
  803000    2907.9012    -4000.244    5.4740544    -3340.743    301.94376   -678.36028    0.9941608       0.5985 
  804000    2911.2879   -4033.9984    5.3324577   -3352.2219    312.29304    769.02605    1.0040785        0.598 
  805000    2914.7364   -3994.3202    7.3177242   -3318.3721    308.68575     325.2743   0.99991229       0.5975 
  806000    2918.1395   -4048.9931    5.2081914   -3379.8545    306.51591    982.54539    0.9978069        0.597 
  807000    2921.5364   -3960.1063    5.7340786   -3323.2694    291.36047    333.10108    1.0191017       0.5965 
  808000    2924.9684    -3967.322    7.7756898   -3307.8742    300.85665    501.05882    1.0107992        0.596 
  809000    2928.3866   -4000.9196    6.4310036   -3324.8179      309.166   -576.03238   0.99212367       0.5955 
  810000    2931.8132    -4020.039    6.7710487   -3350.9638     305.7651    961.22488    1.0082897        0.595 
  811000    2935.1479   -4000.1749    4.6082932   -3356.0534    295.24328    419.55674   0.99302406       0.5945 
  812000    2938.5269   -4062.7087    5.1440346   -3396.8888    305.01338    248.45823    1.0106234        0.594 
  813000    2941.9528   -4018.7936    5.3245794    -3367.091    298.41253    100.68164   0.99111761       0.5935 
  814000      2945.38   -4019.6263    5.2060114   -3401.2932    283.06161     86.38411   0.97771987        0.593 
  815000    2948.7792   -4024.9775    7.8284647   -3341.7773      311.798   -650.34303   0.98761597       0.5925 
  816000    2952.2015   -3936.9411    6.8397875   -3289.2865    295.84415    645.09306   0.98773382        0.592 
  817000    2955.6451   -4004.8687    7.2210365   -3326.8849     309.6702     683.4331   0.99628948       0.5915 
  818000    2958.9275   -4004.6899    4.1973185   -3362.0238    294.76107    425.36416    1.0204702        0.591 
  819000    2962.0113   -4007.4857    3.9654551   -3360.8384    296.70614    492.86757    1.0089068       0.5905 
  820000     2965.246   -3975.8006    3.3583065   -3329.8304    296.67383    222.99429   0.97542735         0.59 
  821000    2968.9432   -3972.4645    5.5532245   -3317.2926    299.90864   -98.821101   0.97658202       0.5895 
  822000    2972.0863    -3953.045    3.9588497   -3325.8867    287.71172   -206.88329   0.97664159        0.589 
  823000    2974.6254   -3961.5162    4.2785444   -3268.9607    317.75594    668.49795   0.98839414       0.5885 
  824000    2977.0809   -3964.9078     5.026894   -3264.6772    320.95383   -113.44535   0.97353813        0.588 
  825000     2979.753   -3969.9275    4.1025003   -3325.4843    295.62528   -439.27879   0.97334242       0.5875 
  826000    2982.1139    -3950.904    4.5815952   -3310.7797    293.41017    301.90695    1.0012815        0.587 
  827000    2984.4772   -3982.2773    4.0341315   -3347.5718    291.16122    509.54156    0.9960709       0.5865 
  828000    2987.5373   -4012.9895    6.0851053   -3363.1938    297.18101   -64.846215   0.98436509        0.586 
  829000    2990.4059    -3959.606    4.7356381   -3313.1564    296.25928   -36.249278   0.99949165       0.5855 
  830000     2993.672    -4018.382    2.2279634   -3372.2597    297.26592   -516.57363   0.98615046        0.585 
  831000    2997.3702    -4017.783    2.5590136   -3397.9842    284.96032   -354.39828   0.99526585       0.5845 
  832000    3000.9272   -4031.4833    5.5418761   -3378.5896    298.86208   -475.47178   0.99749563        0.584 
  833000    3004.3215   -4016.6137    4.2390965    -3359.169    301.56462   -901.93922    0.9900593       0.5835 
  834000    3007.7708    -3981.087    5.0232721   -3323.9825    301.04552    346.15733   0.97988799        0.583 
  835000    3011.3455   -3947.3095    5.1263801   -3256.0547    316.76402   -324.25055   0.98047604       0.5825 
  836000    3014.8751   -3994.1002    6.3239554   -3338.9142    299.55935    983.14224   0.96906675        0.582 
  837000    3018.5149   -4035.4749     1.751623   -3419.2106    283.70128    100.80249   0.99473327       0.5815 
  838000    3021.9947    -4003.484    5.6230824   -3360.8675    294.07996   -970.87996   0.98368988        0.581 
  839000    3025.6541   -3947.2397     6.057602   -3260.0634     314.4512    672.73494   0.99809714       0.5805 
  840000    3029.2216   -3965.7987    8.1464112   -3323.3323    292.84572   -728.18964   0.95569418         0.58 
  841000     3032.994   -4018.5821     6.180857   -3382.4395    290.83365     10.63729   0.98955943       0.5795 
  842000    3036.4977   -4015.5315    5.4373517   -3357.3179    301.36638   -201.10384    0.9885502        0.579 
  843000     3039.666   -3967.5626    5.8416032   -3345.2536    284.60372   -3.8157533   0.97862562       0.5785 
  844000    3043.1917   -4035.8093    6.3150756    -3382.921    298.50266    445.32101   0.97538437        0.578 
  845000    3046.8223   -4038.7477    6.9221296   -3411.8788    286.21003    1578.6709    1.0021626       0.5775 
  846000    3049.9384   -4053.2967    3.6945234   -3378.1676    309.98034   -581.82135   0.96993185        0.577 
  847000    3053.6018   -3961.6233    7.7395932   -3295.4311    303.98699   -236.21057   0.98367393       0.5765 
  848000    3057.2048   -4001.7771    3.9653503   -3384.2358    283.26882    1646.7928    0.9990437        0.576 
  849000     3060.367   -4036.8155    6.2951035   -3391.8402     294.8587   -145.67262    1.0075161       0.5755 
  850000    3063.9904   -3999.7444    5.8256211   -3364.5174     290.5749   -525.85785   0.99112551        0.575 
  851000    3067.5543   -4000.4446    6.5235448   -3331.7291    305.71329   -476.59808    1.0034812       0.5745 
  852000    3070.5898   -3994.4635    3.9169299    -3334.683    302.79169      100.256    1.0064167        0.574 
  853000    3074.2291   -4014.4033    4.7540568   -3360.7042    299.59764     447.8435    1.0105795       0.5735 
  854000    3077.1688   -3961.7131     2.030225   -3295.1363    306.80037    378.69266   0.98981169        0.573 
  855000    3080.8302   -4031.8134    3.9239216    -3339.304    317.89841    577.18719    1.0240991       0.5725 
  856000    3084.2159   -4019.3344    4.5695822   -3335.5916      313.553    383.23929   0.99128814        0.572 
  857000    3087.8289   -4027.4696    4.5129677   -3380.6224    296.54565   -725.21384   0.97971199       0.5715 
  858000    3091.1829   -3994.2485    7.5770657   -3312.5108    311.23888    553.63056   0.99927399        0.571 
  859000    3093.8807   -3982.2593    4.7589131   -3345.1452    291.93865    168.20625    1.0049603       0.5705 
  860000    3097.4221   -4023.7824    6.3383912   -3363.9287    301.70758    557.23647   0.98403564         0.57 
  861000    3101.0872   -3969.6163     5.596637   -3321.8589    296.46553   -1148.7066   0.95560368       0.5695 
  862000    3104.6814   -3995.0181    5.7922873   -3341.1434     299.1994   -791.15723   0.97156611        0.569 
  863000     3108.372   -3987.7609    5.3424144   -3321.5144    305.11874    564.09791   0.99251422       0.5685 
  864000    3112.1812   -4017.9956    4.1833966   -3366.4331     298.8747   -96.141147   0.98642227        0.568 
  865000      3115.96   -3987.4565    4.4827428   -3318.5302    306.75282   -870.51105   0.97786436       0.5675 
  866000    3119.7168   -4042.8104    5.0186181   -3403.1506    292.99399   -644.78474   0.98482506        0.567 
  867000    3123.4829   -3954.5939    5.6240295   -3322.3902    289.27223   -911.38727   0.96377813       0.5665 
  868000     3127.226   -3966.2869    4.6748996   -3328.9525    292.07909   -932.13436   0.98103751        0.566 
  869000    3131.0591   -4000.7889     4.223018   -3356.6719    295.41903    433.99454    1.0065601       0.5655 
  870000    3134.8467   -4011.2686    3.4488968   -3333.5096    311.30791    884.66999    1.0004479        0.565 
  871000    3138.6325   -3978.7596    5.3692878   -3343.4464    290.82541    823.64378   0.99639885       0.5645 
  872000    3142.3474   -3998.6516    4.8087936   -3364.1147    290.72579   -306.60279    0.9926182        0.564 
  873000    3146.1157   -3985.6164    4.5037317   -3343.9479    294.15904    674.75996     1.016059       0.5635 
  874000    3149.8391    -3979.026     5.773463   -3346.7261    289.24768   -18.508094   0.98081843        0.563 
  875000    3153.6062   -3981.2831    3.1196282   -3346.2791    291.72128   -1327.7972   0.99499236       0.5625 
  876000    3157.4292    -3953.642    3.1902767   -3292.2636    303.86488   -50.645482    0.9590894        0.562 
  877000    3161.2077   -3926.6904    3.5953589   -3261.0934    305.62547   -660.34398   0.96025073       0.5615 
  878000    3164.9114   -3942.2727    4.1874812   -3283.2794    302.30339   -567.93457    0.9684477        0.561 
  879000    3168.6396   -4054.7719    4.7630617   -3353.0323    321.77229    453.69152   0.99272059       0.5605 
  880000    3172.3557   -4013.8732    3.4329897   -3339.5504    309.72882     327.8639   0.98489392         0.56 
  881000    3176.1134   -4018.3413    2.4660135    -3347.118    308.74432    660.34539   0.99724408       0.5595 
  882000    3179.9057   -4038.7913    5.2777499   -3381.9985    300.78414   -1064.9101   0.99732627        0.559 
  883000    3183.7764   -4050.6385    5.8685398    -3385.309    304.45252    1614.3566    1.0119413       0.5585 
  884000     3187.535   -3980.3055    4.3536592   -3316.1734    304.59911   -485.40553   0.98453741        0.558 
  885000     3191.276    -3987.398    4.0229734   -3318.1452    307.11584   -394.46758   0.98968688       0.5575 
  886000    3194.9846   -4020.8558    4.0655442   -3350.7732    307.47928    847.72747   0.99842497        0.557 
  887000    3198.7298    -4036.608    3.7628835   -3415.1809    285.15624   -78.053647    0.9932391       0.5565 
  888000    3202.4863   -3932.9633    3.5919582   -3300.8986    290.14621   -21.538055   0.96105025        0.556 
  889000    3206.2458   -3971.8181     5.539695   -3318.5181    299.05068    744.51811    0.9672138       0.5555 
  890000    3209.9893   -4036.5359    5.7195506    -3376.503      302.076   -768.75423   0.97978015        0.555 
  891000    3213.8534   -3976.7209    5.3428044   -3312.9662    303.96816   -229.87474    0.9804915       0.5545 
  892000    3217.5954   -4001.3717    4.8993943   -3369.6541    289.38235    710.45749   0.99970349        0.554 
  893000     3221.392   -3972.2812     7.094146   -3280.8064    315.95712    311.64323    1.0020241       0.5535 
  894000    3225.1564   -4021.6541     5.991973   -3374.2798    296.10615    156.52793   0.98982731        0.553 
  895000     3228.918   -4026.0643    5.7441998   -3384.4705    293.55187   -305.15595    1.0007308       0.5525 
  896000     3232.672   -4032.6485     5.297152   -3385.6411    296.25754     513.2899    1.0087828        0.552 
  897000    3236.5575   -3993.5467    5.1711232   -3353.3962    293.15014   -646.09162   0.99480467       0.5515 
  898000    3240.3919   -4006.8444    4.3837858   -3353.1905    299.74767    557.44614   0.99706636        0.551 
  899000    3244.1919   -3998.1171    6.7783504    -3349.638    296.25317    1132.4345    1.0015082       0.5505 
  900000    3247.9404   -4004.6782    4.0029354   -3381.2976    285.94728    1120.0179   0.98431547         0.55 
  901000    3251.4031   -4016.2425    4.0310675   -3372.7416    295.22321    636.64936   0.98256115       0.5495 
  902000    3254.8746   -4007.1077    3.9642939   -3378.5887    288.33735    1051.9772    1.0023124        0.549 
  903000    3258.3155   -3990.1832    6.9138818   -3328.0387    302.49949    67.909463   0.99319211       0.5485 
  904000    3261.7481   -4004.7717    5.3329802   -3365.0637     292.8711    890.94369   0.98928608        0.548 
  905000    3265.2093   -4025.8485    4.4599025   -3352.0798    308.99892   -54.300107   0.99751359       0.5475 
  906000    3268.5938    -3999.113    6.6937033    -3329.343    306.12157    969.01586   0.97937738        0.547 
  907000    3271.9158   -3996.9236    5.4105235   -3384.1073    280.42026   -416.41372   0.98682124       0.5465 
  908000    3275.2982   -4054.9923    6.9662192   -3394.8498    301.55106    110.79439   0.98599646        0.546 
  909000    3278.7625   -4003.5254    5.2976951   -3329.0275    308.94879   -764.23155   0.97876477       0.5455 
  910000    3282.1915   -3988.2616    4.5261485   -3353.9023    290.77424    42.798619    0.9964202        0.545 
  911000    3285.6611   -4036.1587    3.2823395   -3412.7425    286.29641   -157.94208    1.0093166       0.5445 
  912000    3289.1137   -4002.4945    4.5787197   -3322.1742    311.96875   -602.33886   0.98624077        0.544 
  913000    3292.5257   -3970.8331    5.2175955   -3305.2423     304.8737   -1521.4992   0.97651731       0.5435 
  914000    3295.9908   -3985.8431    5.0988585   -3333.0337    299.02771   -1181.3749   0.95986451        0.543 
  915000    3299.3623   -3961.1402    4.6164761   -3292.4905    306.56338    715.19475   0.98372248       0.5425 
  916000    3302.8968   -3987.8815    6.2814649   -3322.8922    304.10478     141.6198   0.98872158        0.542 
  917000    3306.4859   -3975.5194    6.4132339   -3339.1474    290.83226    717.03658   0.97436467       0.5415 
  918000    3310.1026   -3995.8133    6.2306759    -3308.476    314.44564    680.74581   0.98096899        0.541 
  919000    3313.7507   -3989.0551    6.9738696   -3362.7785    285.91271   -1177.0644    0.9868397       0.5405 
  920000    3317.2704   -3951.8327    6.1528512    -3307.397    294.67527     550.0826   0.99307694         0.54 
  921000    3321.1267   -3978.3488    8.1747909   -3326.0292    297.38152    369.51476   0.99333202       0.5395 
  922000    3324.9855   -4052.3892    7.4742129   -3391.7384    301.55121   -1417.2244   0.99338752        0.539 
  923000    3328.8163   -4019.8826    7.9916615   -3366.5548    297.93151    573.75346    1.0040174       0.5385 
  924000    3332.5671   -4006.3084    8.2050021   -3328.6925    309.04609    363.23666    1.0191091        0.538 
  925000    3336.3506   -4018.8447    7.9877851   -3375.0766    293.51988    830.54457    1.0068274       0.5375 
  926000    3339.9758   -3966.0167    4.7085224   -3343.3166    285.30739    630.90678   0.99525238        0.537 
  927000    3343.5971   -4027.5107    8.1552949   -3371.6115    299.04311   -125.33064   0.99059185       0.5365 
  928000    3347.2848   -4067.4816    7.1559741   -3414.4781    298.16757    313.49668    1.0089559        0.536 
  929000    3351.1734   -4024.0879    5.6004415   -3349.2841    308.95023   -76.031039    1.0100754       0.5355 
  930000    3354.8485   -3959.0932    5.9307933   -3283.2353     309.2844    54.026108    0.9812424        0.535 
  931000    3358.5823   -3981.4576    4.9137515   -3345.1923    291.47528   -1739.1731    0.9726482       0.5345 
  932000     3362.205   -3948.5815     5.381112   -3300.5122    296.70905    1079.0248   0.99551663        0.534 
  933000      3365.91   -3960.7538    5.8110047   -3273.8839    314.42362     743.7982   0.99340858       0.5335 
  934000    3369.5243    -3988.126    6.5698363   -3334.8489    298.56449   -229.91366   0.98143336        0.533 
  935000    3373.2733   -4019.6055    4.6636291   -3357.5639    303.49085    739.84047    1.0021036       0.5325 
  936000    3376.5369   -3967.9348    4.3392234   -3294.7119    308.80267   -875.97242    1.0094538        0.532 
  937000    3380.3187   -3995.2629    7.7859599   -3333.0676    302.12037    647.82185    1.0165633       0.5315 
  938000    3384.0254   -4002.1658     6.116941   -3307.9922    317.65423    729.40594    1.0329031        0.531 
  939000    3387.7207   -3931.3496     5.133131    -3283.992    296.49495   -562.90856   0.97964369       0.5305 
  940000    3391.3672   -3961.2891    4.4629143   -3287.7093    308.91032    44.780241   0.97355138         0.53 
  941000    3394.5382   -3993.5357    5.3101323   -3323.2005     307.0213     708.7436   0.98931584       0.5295 
  942000    3396.9813   -3989.6746    4.7574288   -3299.1417    316.60107    538.94484   0.99322931        0.529 
  943000    3400.8736   -3994.9529    4.3040439   -3333.3811    303.43998   -518.49883   0.99986879       0.5285 
  944000    3404.8407   -3973.8923    3.7530014   -3314.7373    302.57861    784.93979    1.0039438        0.528 
  945000    3408.0103   -4002.5276    5.9559857   -3326.9855    309.12694   -126.96257   0.98917195       0.5275 
  946000    3411.3718   -3956.1576    3.8599406   -3296.7164    302.66137    1325.6299   0.99698989        0.527 
  947000    3415.2615   -4012.0386     4.273841   -3365.8708    296.34236   -772.00661   0.99156903       0.5265 
  948000    3419.1363   -4016.3871    4.4434103   -3338.7148    310.80871    771.06909   0.99593885        0.526 
  949000    3422.9373   -4039.0703    5.9952266   -3387.1754    298.19168   -287.29801   0.98363564       0.5255 
  950000    3426.5113   -3978.8202     5.075421   -3315.8631    303.72337    177.20446   0.98423313        0.525 
  951000    3430.3017   -3988.2632    4.5168498   -3334.9549    299.52671    305.52683   0.96697347       0.5245 
  952000    3433.9934   -3961.5068    2.0442741    -3329.286    290.93278   -84.168756   0.97790321        0.524 
  953000    3437.6554   -3991.6492    4.6830618   -3337.5689    299.80636   -1271.5683   0.98473343       0.5235 
  954000    3441.4483    -4015.579     2.823863   -3374.9266    294.46549    850.70606    1.0018266        0.523 
  955000    3444.3919   -3997.8384    4.6101635   -3319.9284    310.84144   -510.99871   0.97983632       0.5225 
  956000    3446.7434    -3944.325    4.8672286   -3281.7922    303.62362    1358.2136    1.0131288        0.522 
  957000    3450.1516   -4021.4564    3.7188842   -3380.5384     294.1749   -19.074855    1.0150067       0.5215 
  958000     3453.896   -4066.6129    4.3268728   -3420.1266    296.46494   -434.25152    1.0077992        0.521 
  959000    3457.4959   -4004.6388    3.4940771   -3363.5167    294.37292    507.06503   0.98091001       0.5205 
  960000    3461.0882   -3975.4555    3.8222542   -3337.4386    292.78783   -1059.1578   0.98372366         0.52 
  961000    3464.6289   -3946.3988    3.5323826   -3290.9805    300.95532    13.709689   0.97796429       0.5195 
  962000    3468.3897   -4002.9021    3.7225508   -3358.5259    295.76978    613.12127   0.98893794        0.519 
  963000    3471.9501   -3984.9377    3.3279928   -3331.7599    300.01533     348.1738   0.98808927       0.5185 
  964000    3475.6765   -3980.1906    3.4539786   -3327.1761    299.88179   -701.23089   0.97425487        0.518 
  965000    3479.2673   -4023.4276    3.7672001   -3381.9456      294.413   -173.90798   0.98932399       0.5175 
  966000    3482.9526   -3967.5454    2.7982479   -3311.6486    301.51521   -104.39596   0.99285191        0.517 
  967000    3486.6718   -4007.0567    3.5131672   -3341.3261    305.72509   -243.80007    1.0032034       0.5165 
  968000    3490.4894   -4011.4119    2.6400686   -3354.8239    301.90732   -475.28611   0.97965959        0.516 
  969000    3494.1363   -3971.6495    3.7386887   -3298.3235    309.12752   -107.08603   0.96887314       0.5155 
  970000    3498.0683   -4027.3048     3.146832    -3369.705    302.14045   -661.59848   0.97658575        0.515 
  971000    3501.5831   -4000.8169    5.5594573    -3368.634    289.29241    1246.9749   0.99182246       0.5145 
  972000    3505.2911    -4001.705    4.6567217   -3345.8256    300.64913    326.12511   0.98005941        0.514 
  973000    3508.8366   -3958.1874    4.4802188   -3315.5463    294.61892    21.339055   0.96960956       0.5135 
  974000    3512.4397   -4000.5586    6.7009774   -3313.5589    314.07261    345.21935   0.97790272        0.513 
  975000    3515.6185    -4000.307    6.8760723   -3305.1741    317.74666    19.164291   0.96119026       0.5125 
  976000    3519.1039   -3993.5179    4.7341385   -3335.9525    301.39178   -971.37703   0.96520714        0.512 
  977000    3521.5729   -3969.6273     2.185051   -3328.7618     294.8588     -520.072   0.96631312       0.5115 
  978000      3525.38   -3996.9847    5.2549761   -3349.8049    296.35664    278.51221   0.98529691        0.511 
  979000    3529.1916   -3996.4449    4.8641583   -3338.5878     301.4664   -145.88969   0.98634474       0.5105 
  980000    3532.4914   -4022.9346    3.1620815   -3388.1835    291.58491   -19.751211    1.0039922         0.51 
  981000     3536.306   -3973.9994    4.7219406   -3336.2377    292.25467   -502.82122   0.97008403       0.5095 
  982000    3540.2122   -4040.2237    4.0685329   -3343.4573    319.79692    -73.52382    0.9953387        0.509 
  983000    3544.1143   -4023.2579    5.9040341   -3339.0841    313.13594    455.24869   0.99422962       0.5085 
  984000    3547.1167    -3910.532     4.637564   -3231.0073    311.57428    126.53806    0.9911749        0.508 
  985000    3550.8978   -3967.0704    4.9930156   -3303.4292    304.07727    395.32871   0.99931805       0.5075 
  986000    3554.6323   -4040.6398    5.8874426   -3383.2396     300.7831    -844.1252   0.96847886        0.507 
  987000    3558.4322   -3974.3459    5.2741809    -3358.122    282.05638    -610.6411    0.9818975       0.5065 
  988000    3562.0646    -4000.341    4.1035994   -3347.0025    299.73144   -951.62549   0.97783101        0.506 
  989000    3565.7008   -3986.1054    5.3930553   -3327.5793    301.53111   -1569.1093   0.98987204       0.5055 
  990000    3569.3376   -4029.6028    3.5407629   -3352.3379    311.03733    1330.2158    1.0197616        0.505 
  991000    3572.9519   -3965.5292    4.9188485   -3307.5763     301.4854    525.44039   0.99743011       0.5045 
  992000    3576.4743   -4006.2315    5.9213208   -3340.5094    304.60938    213.43895    1.0046931        0.504 
  993000    3580.0849   -4052.5477    6.0818576   -3393.2619    301.56382    509.77433    1.0365656       0.5035 
  994000    3583.6493   -4006.4119    7.5517006   -3345.2444    301.75397     610.2043    1.0192079        0.503 
  995000     3587.253   -3974.7688    9.4409631   -3323.6996    296.21972     49.67533   0.99653022       0.5025 
  996000      3590.76   -4063.4978    8.4287184   -3411.7556    296.99771    1571.5389    1.0114075        0.502 
  997000    3594.3075    -4069.222    7.3559882   -3400.4832    305.33978    38.884753   0.99850613       0.5015 
  998000    3597.9393   -4013.5793    9.8534486   -3385.3816    285.47017   -406.06382   0.99446225        0.501 
  999000    3601.6796   -4008.9669     7.325163   -3386.1312    284.16198   -574.55021   0.98693554       0.5005 
 1000000    3605.2602   -3988.3861    8.0990956   -3334.8118    297.99571    1015.5327    1.0042521          0.5 
 1001000    3608.6394   -3990.3286    7.6916954   -3310.1886    310.44835   -298.76259   0.99916524       0.4995 
 1002000    3611.7669   -4004.1094    5.5166661   -3346.4831    301.05864    479.09417   0.98888247        0.499 
 1003000    3614.1666   -4033.3904    7.2880821   -3369.6513     303.0629    503.18965    1.0063489       0.4985 
 1004000    3616.3441   -3986.3203    7.1790422   -3310.9264    308.49393    360.40791   0.99290513        0.498 
 1005000    3618.4906   -4014.6605    4.9019433   -3336.4646    310.83876    894.49572    1.0137915       0.4975 
 1006000    3621.0274   -4034.3693    6.6093861   -3372.8517    302.35063    395.57353    1.0031294        0.497 
 1007000    3624.3875    -3996.449    6.4075911   -3295.5867    320.60803   -271.80347   0.98758551       0.4965 
 1008000    3627.8322   -3983.7782    6.1999376   -3354.5862    287.61596    161.65822   0.99817413        0.496 
 1009000    3631.0142   -3973.1135     5.703986   -3293.1186    311.29903   -325.33899   0.97493753       0.4955 
 1010000    3633.1006   -3991.5602    5.6925667   -3365.3506    286.47329    39.960501   0.97080146        0.495 
 1011000     3636.313    -4021.706    5.1196487   -3339.3044    312.67993     659.8381   0.97859784       0.4945 
 1012000    3639.6134   -4024.5397    4.8568862   -3386.5737    292.28664    1038.7468    0.9833549        0.494 
 1013000    3642.9951   -4000.3661    7.3662549   -3334.7979    303.87124    1114.6512   0.98909632       0.4935 
 1014000    3646.2998   -4014.3348    3.7642211   -3321.5135    318.11612   -988.78692   0.96775917        0.493 
 1015000    3649.6336   -3979.1878    5.1497332   -3295.2552    313.37285   -196.14225   0.98101688       0.4925 
 1016000    3653.1243    -4022.753    4.0531959   -3356.1658    305.87122   -970.07019   0.97387002        0.492 
 1017000    3656.5079   -3933.4487    5.6278335    -3282.398    297.97155    2.1574081   0.96883419       0.4915 
 1018000    3659.7649   -4038.5837    4.4617656   -3338.6242    321.08955   -869.00307    0.9811349        0.491 
 1019000    3662.8586   -4006.4029    5.1851289   -3348.2262    301.46581    403.78166    0.9875681       0.4905 
 1020000    3666.1357   -3990.0027     5.627478   -3356.1885    290.01416  -0.11781278   0.98225274         0.49 
 1021000    3669.7717   -3975.9001    2.5787994   -3333.9098    295.19633    34.091428    0.9875064       0.4895 
 1022000    3673.4211   -4016.8042    3.4577861   -3393.0415    286.37536    600.60324    1.0027169        0.489 
 1023000    3677.1168   -4002.6105    3.8311601   -3380.0219    285.66096   -333.12337   0.99522564       0.4885 
 1024000    3680.7965   -4033.5642     3.431285   -3389.3126     295.8467   -943.20837   0.98085652        0.488 
 1025000     3684.301   -3964.1946    6.2633177    -3317.699    295.57525   -1302.6696   0.96533299       0.4875 
 1026000    3687.9996   -3997.6056    2.4268606   -3366.3736    290.29968   -84.107362     1.006128        0.487 
 1027000    3691.6455   -3946.8498    3.3740458    -3303.417    295.49509    819.60709   0.98896188       0.4865 
 1028000    3695.2675   -3945.5593    4.7003797   -3293.7136    298.76676    360.90495   0.99237126        0.486 
 1029000    3699.1037   -3944.6145    4.6911512   -3337.8967    277.93684   -1112.6609     0.983358       0.4855 
 1030000    3701.6647    -3989.049    6.1546779   -3302.9197    313.92299    1576.0703    1.0081362        0.485 
 1031000    3705.3487   -3995.0529    7.8308929   -3318.3156    308.81317    260.13971   0.99945469       0.4845 
 1032000    3708.8351   -4003.9717    7.1105684   -3333.0209    306.47427   -1181.1717   0.97627805        0.484 
 1033000    3711.9155   -4014.7894    5.7884726   -3351.8528    303.38472    491.77167   0.99950386       0.4835 
 1034000    3714.7638   -3955.3631    6.6759385   -3327.6394    286.71831   -663.35851   0.96914765        0.483 
 1035000    3718.4837   -3998.1561    6.3603114   -3343.9812    299.07573   -387.83007    1.0017565       0.4825 
 1036000    3722.3389   -4010.3515    5.5097189   -3314.8992     318.5249    269.13152   0.98187887        0.482 
 1037000    3726.1443   -4032.2082    6.0072106   -3353.4202    310.60184   -740.48978   0.98192758       0.4815 
 1038000    3730.0286   -3970.8475    3.8187715   -3285.5276    314.62776    10.395883   0.98839834        0.481 
 1039000    3734.0095   -3951.0011    6.8741917   -3309.8748    292.81436   -476.93475   0.99251565       0.4805 
 1040000    3737.9298   -4054.4509    4.7582572   -3378.7768    309.74087    291.60535    1.0040729         0.48 
 1041000    3741.7094   -3998.3634    7.7880484   -3329.2109     305.3313    892.75577   0.99889398       0.4795 
 1042000    3745.2238   -3964.7229    4.7693258   -3304.1601    302.75934    107.25409   0.98636487        0.479 
 1043000    3749.1496   -3988.8755    2.8376719   -3364.4406    286.97198   -278.14545   0.98607497       0.4785 
 1044000    3753.0819   -3980.8385    5.1027704   -3315.8728    304.63809    1087.6517    1.0023381        0.478 
 1045000    3757.0118   -4047.2935    5.9862642   -3385.4466    302.79036    530.17834   0.99843994       0.4775 
 1046000    3760.8822   -3997.3114    4.2379525   -3360.3096    292.12728    52.719922    1.0041676        0.477 
 1047000    3764.7644   -3974.6596    5.4087307   -3330.2634    295.00057   -1525.6597   0.98388121       0.4765 
 1048000    3768.0052   -4007.7318    4.4246347   -3358.2945    297.78215    1151.6513   0.98906898        0.476 
 1049000    3770.6094   -3963.5137    6.2046968   -3335.0831    287.26226   -273.94562   0.98545972       0.4755 
 1050000    3773.6688   -4023.9696    4.6308757   -3375.4048    297.28416   -472.08754    1.0016116        0.475 
 1051000    3777.0596    -4065.409    5.0062004   -3393.5341    307.87239    953.61926    1.0195394       0.4745 
 1052000    3780.5285   -3977.6293    5.2963486   -3332.3731    295.44946   -977.60664   0.97371685        0.474 
 1053000    3784.0533   -4040.5667    6.5702152   -3386.5618    298.90034   -128.28405    1.0094073       0.4735 
 1054000    3787.6656   -3977.8405    5.6724932   -3336.4686    293.48253   -389.41719   0.99513783        0.473 
 1055000    3791.2634   -4007.2178    7.3499352   -3361.8325      294.561   -698.47992   0.99222528       0.4725 
 1056000    3794.9801   -3996.3782    6.0336041   -3328.9724    305.33487    440.47444   0.99658737        0.472 
 1057000    3798.7729   -4000.9485    6.2576137   -3345.6612    299.63669   -365.46115   0.98032517       0.4715 
 1058000     3802.567   -3971.5289    9.7605048   -3305.7387     302.8684    202.25194   0.98280456        0.471 
 1059000    3806.3548     -3978.86    7.1095619   -3317.6293    301.98727    887.21992    1.0058199       0.4705 
 1060000    3810.1816   -4000.0881    5.6299714   -3362.7197    291.65388   -792.62555    0.9862935         0.47 
 1061000    3814.0074   -3946.0952    7.5842663   -3272.9117    307.28634   -554.82828   0.98974655       0.4695 
 1062000    3817.8228   -4026.5207    7.6213053   -3397.0389    287.09357     322.5789   0.98509754        0.469 
 1063000    3821.6435   -3967.0221    4.9808819   -3307.2573    302.29327    1032.5759   0.99493998       0.4685 
 1064000    3825.4141   -3985.9594    9.2638149   -3357.4375    285.89206   -574.08554   0.99623732        0.468 
 1065000    3829.1684    -3967.125    8.2841798    -3272.779    316.73331   -31.606595   0.98680899       0.4675 
 1066000    3833.0001   -3971.5826    9.2711694   -3337.8164    288.30983   -85.246329    1.0055865        0.467 
 1067000    3836.9391   -4013.9506    12.547204   -3353.5836    299.07815    411.08948   0.99347873       0.4665 
 1068000    3840.6968   -4027.8883    10.286974   -3356.4333    305.24059   -146.23847   0.98941586        0.466 
 1069000    3844.5548   -3966.1343    10.548265   -3301.5471    301.94933   -224.85043   0.99471848       0.4655 
 1070000    3848.3021   -3967.1874    8.8767525   -3326.3241    291.76844   -872.70115   0.98283574        0.465 
 1071000    3852.1242   -3997.5048    8.6683412   -3349.7555     295.0437    474.67443   0.99615547       0.4645 
 1072000    3855.9187    -3971.261    10.405672   -3315.3247     298.0213     100.3823   0.98284417        0.464 
 1073000    3859.6774   -4006.9613    6.4862722   -3334.8877    307.28085   -209.71692   0.98768932       0.4635 
 1074000    3863.5016   -4049.5906    6.5801535    -3380.415    305.89961    198.09508   0.99032415        0.463 
 1075000    3867.2871   -3959.9472    8.3021998   -3301.8758    299.97812   -384.59173    0.9837462       0.4625 
 1076000    3871.0454   -3937.1707    6.9976057   -3261.6046    308.65717    -139.7127   0.99515843        0.462 
 1077000    3874.9241   -4003.0258    5.9769353    -3359.126    294.50904    1205.0446    1.0144616       0.4615 
 1078000    3878.7308   -3861.7222    6.9527527   -3226.4333    290.08316    336.32423   0.96063667        0.461 
 1079000    3882.5599   -3976.9616    6.3327358   -3315.1588    302.61002    16.416183    0.9923113       0.4605 
 1080000    3886.3397   -4011.0526      4.75469   -3379.1742    289.52341   -61.081952   0.98840572         0.46 
 1081000    3889.9884   -4044.7935    4.3197532   -3423.6318    284.77661   -794.82951   0.99800407       0.4595 
 1082000    3893.8131   -4013.5241    5.2645897   -3346.8757    305.34022    214.70833    1.0163816        0.459 
 1083000     3897.619   -3959.8899    6.3093053   -3289.3787    306.64126    -513.2289    0.9865063       0.4585 
 1084000    3901.4395   -4030.9404    5.2225344   -3393.8656    291.70643   -1435.3595   0.97828901        0.458 
 1085000    3905.1577   -3993.0424    5.4046132   -3361.9342    288.86778   -66.395879   0.98953031       0.4575 
 1086000     3908.929   -3997.5391    7.3277195   -3322.4643    308.27791    113.23409   0.96270996        0.457 
 1087000    3912.7153   -4012.1138    2.9326744   -3342.9571    307.57478    605.49309   0.97733495       0.4565 
 1088000     3916.492   -4037.3154    4.4272228     -3388.46    297.51232   -53.472645   0.98357005        0.456 
 1089000    3920.2581   -4030.9578    4.9558759   -3392.1126    292.64687   -687.58643   0.98234578       0.4555 
 1090000    3923.9778    -3958.885    3.3536677   -3310.0959    297.97737    103.64032   0.98974385        0.455 
 1091000    3927.7765   -4034.9019    4.4040947   -3340.2649    318.65892    57.740354   0.98539879       0.4545 
 1092000    3931.6995   -4038.0002    6.3877856   -3360.0082    310.05867    1311.3617    1.0028928        0.454 
 1093000    3935.5097   -4019.3357    4.9819758   -3402.1632    282.62922    1535.7378    1.0006096       0.4535 
 1094000    3939.3848    -3960.263    4.9479843     -3311.69    297.14154    601.90755   0.99196205        0.453 
 1095000    3943.2315   -4025.5019    3.2437001    -3384.185    294.57843   -797.03754   0.98702812       0.4525 
 1096000    3947.0411    -3979.705    5.7538892   -3325.3946    299.41827    140.40619   0.98146745        0.452 
 1097000    3950.9349   -3953.6981    5.7776068   -3239.9943     326.8274    725.14673    1.0041129       0.4515 
 1098000    3954.7828   -4003.8504    4.7596867   -3360.8806    294.64163    103.34843    1.0007166        0.451 
 1099000     3958.579   -3906.7449    5.9988864     -3251.44     299.7643     403.2702   0.98829385       0.4505 
 1100000    3962.3314    -3900.139    5.8640437    -3220.338    311.13564    816.37886   0.99850379         0.45 
 1101000    3965.7421   -3924.9412    5.3597297   -3285.7845    292.60424   -355.21893   0.99900764       0.4495 
 1102000    3969.2616   -3994.6105      5.15541    -3360.003    290.59835   -758.22264   0.96755461        0.449 
 1103000    3972.8147   -4024.5338    5.3588842   -3389.9203    290.50716   -141.04647    0.9878649       0.4485 
 1104000    3976.1852   -4007.4082    7.8282003   -3347.2301    301.16955   -1527.1757   0.97751414        0.448 
 1105000    3979.6601   -3965.0795    3.8946701   -3324.0808    294.13105    -235.6864    1.0008244       0.4475 
 1106000    3983.1404   -3994.7752    8.7089068   -3359.8712    289.09469    58.710098   0.99146458        0.447 
 1107000    3986.6067   -4020.9104    7.0240002    -3351.275    305.90693    673.63964    1.0023586       0.4465 
 1108000    3990.0629   -4041.5515    4.6364791   -3384.4684    301.21419    731.15898   0.99312675        0.446 
 1109000    3993.5541   -4044.1141    6.3072316     -3354.34    315.53528    240.02169    1.0012644       0.4455 
 1110000    3996.9816   -4020.1906    7.8952599   -3370.8707     296.1257   -298.23873   0.99521047        0.445 
 1111000    4000.3365   -3986.8136    6.7157274   -3346.7176    292.41186    553.43427     1.010127       0.4445 
 1112000    4003.7337   -3985.0319    11.944611   -3320.6029    301.23163    716.41889    1.0028657        0.444 
 1113000    4007.1743   -3984.6919    9.2437791   -3329.8179     298.0673    445.07124    1.0008411       0.4435 
 1114000    4010.5858   -3991.3138    9.3082429   -3344.6924    294.22751   -1010.4709   0.96126739        0.443 
 1115000     4014.048   -3973.5041    6.5984642   -3311.5841    302.54147   -838.22864    1.0064971       0.4425 
 1116000    4017.5231   -4014.9604    7.1968474   -3346.7566    305.16625    -308.9682   0.98521382        0.442 
 1117000    4020.9851   -4029.7455    6.5346352   -3360.8857    305.77481    288.64342    1.0044046       0.4415 
 1118000    4024.4608   -4033.0983    6.0020032   -3374.0484    301.49178    888.81515    1.0079218        0.441 
 1119000    4027.9634   -4021.9613    7.0907141   -3401.6422     283.1084   -674.80218   0.98608312       0.4405 
 1120000    4031.4098   -4017.8445    7.8871007   -3332.4876    312.76663    280.77208    1.0015046         0.44 
 1121000     4035.161   -4036.3026    6.9327972   -3380.8401    299.40589   -523.94306   0.96940245       0.4395 
 1122000    4038.9247   -4028.2857    3.7264557   -3358.6359    307.43597    959.11645    1.0040931        0.439 
 1123000     4042.755   -3956.8634    10.324929   -3292.3865    302.00147    1028.7912    1.0111547       0.4385 
 1124000    4046.5562   -3988.7907    5.0922796   -3299.3481    315.94314   -822.09202    1.0014131        0.438 
 1125000    4050.3733   -3977.6333     8.649219    -3296.632    310.40391   -651.95046   0.97902816       0.4375 
 1126000    4054.1447    -4050.533     4.037602   -3401.0641    297.97543    1511.9348   0.99767896        0.437 
 1127000    4057.9856   -4034.9408     9.285179   -3336.2903    318.25842   -1099.6378   0.99300968       0.4365 
 1128000    4061.8049   -4004.0876    6.4752192   -3353.3647    297.42901    332.22902    1.0091337        0.436 
 1129000     4065.603   -3982.3119    9.7481459   -3303.8526    308.72302    149.49791   0.99885038       0.4355 
 1130000    4069.3917   -4013.6578    6.2025093   -3335.4088    310.26284    579.98174    1.0086016        0.435 
 1131000    4073.2465   -4042.0984    7.2622506   -3397.5703     294.2057   -982.48593   0.99370626       0.4345 
 1132000    4077.0349   -3963.5183    5.4755801   -3325.7221    291.92269   -282.90783   0.98591133        0.434 
 1133000    4080.8348   -4024.3996    8.1867257   -3392.2647    288.05737   -238.44269   0.97684084       0.4335 
 1134000    4084.5998   -3983.8298    6.8544171   -3358.6509    285.46108    167.42868   0.97687838        0.433 
 1135000    4088.3411   -3991.4676    6.4446221   -3319.4761    307.26214    1032.1379   0.99602469       0.4325 
 1136000     4092.086   -4035.5361    8.3492883   -3390.8576    293.77329   -1.0373582   0.99344468        0.432 
 1137000    4095.8589   -3985.2477    9.7548185    -3347.877    289.75063    639.98589   0.98077268       0.4315 
 1138000     4099.636   -3995.4402    8.2233157   -3358.5792    290.22236    768.81265   0.98214091        0.431 
 1139000    4103.3919   -4033.5062    4.9091131   -3352.9405    311.92954   -1230.5129   0.97957047       0.4305 
 1140000    4107.2565   -4015.1882    6.5210509   -3377.1243    291.56359   -1016.3075   0.97483363         0.43 
 1141000    4111.0597   -4043.4506     6.907743   -3394.0334    296.62653    764.16086    0.9888182       0.4295 
 1142000    4114.7217   -4041.0139     6.303426   -3371.9907    305.95698   -29.321162   0.99134921        0.429 
 1143000    4118.4947   -4041.6139     4.079575   -3365.4055    310.30085   -185.06179   0.99230576       0.4285 
 1144000    4122.2859   -4013.1493    5.6306305   -3341.1727    307.63111   -82.553763   0.97783211        0.428 
 1145000    4126.0137   -3984.1018    5.8441243   -3296.6406    314.68127    1231.3773    1.0011773       0.4275 
 1146000    4129.7022     -4040.57    6.1065948    -3354.271    314.02354    3.7040758   0.98698524        0.427 
 1147000    4133.4979   -3973.0331    5.7460365   -3308.3752    304.19904   -410.61208   0.97059785       0.4265 
 1148000    4137.2552   -4015.9595    4.4884716   -3334.2189     312.6661    1157.9117   0.99908654        0.426 
 1149000    4141.0213   -4060.8345    3.9639946   -3398.2776    304.05174   -785.10396    0.9930673       0.4255 
 1150000    4144.8486   -4002.7104     5.902656   -3346.1534    300.38676    503.95513   0.98012879        0.425 
 1151000    4148.6356   -4043.2408    2.9881694   -3389.0114     300.6577   -725.93783   0.99757636       0.4245 
 1152000    4152.5226   -3987.0965    3.9063949   -3316.3314    307.86781    496.16703   0.98014359        0.424 
 1153000    4156.2372   -4041.3752    4.4499137   -3407.5355    290.56961   -44.894528   0.98753247       0.4235 
 1154000    4158.9461   -4065.5038     4.341143   -3417.2323    297.28251    1281.9482    0.9856885        0.423 
 1155000    4162.7592   -3993.6346    5.5097071   -3348.1617      295.451    575.03219   0.97911812       0.4225 
 1156000    4166.5553   -3944.9937    4.2457478   -3292.9149    299.08426    216.66234   0.98844876        0.422 
 1157000    4170.3795   -3969.1849    6.2871689   -3334.8384    289.95537     524.6365    1.0055901       0.4215 
 1158000    4174.1526   -3973.3553    4.5648544     -3324.09    297.63804   -1040.6885   0.96991224        0.421 
 1159000    4177.8908   -3962.9358    4.1987745   -3316.5071    296.49747    548.36619   0.97492126       0.4205 
 1160000    4181.7478   -3977.0501    5.3835889   -3318.7491    301.43156     71.85003   0.98258632         0.42 
 1161000    4185.5286   -3995.9337    3.8128156   -3334.9392    303.40023    832.30429   0.99440353       0.4195 
 1162000    4189.3183   -3953.7179    3.4885836   -3274.5487    311.94063    684.25739   0.97780039        0.419 
 1163000    4193.0588   -3978.6154    4.8932986   -3333.5453    295.54962    1105.3772    0.9856103       0.4185 
 1164000     4196.821   -3946.6551    4.1301007    -3272.001    309.55995   -468.67592   0.96175929        0.418 
 1165000    4200.6508   -3966.5405    5.0910573   -3320.1562    296.06501    729.67074    1.0042446       0.4175 
 1166000    4204.4479   -3973.6163    5.1875621   -3307.9465    304.92399   -82.148038    1.0053473        0.417 
 1167000    4208.2247   -3980.3578    4.6147527   -3336.9244    294.92259    602.16866    1.0037637       0.4165 
 1168000    4212.0019   -4020.0667    4.1368658   -3385.8352      290.895    388.19165    1.0057882        0.416 
 1169000      4215.76   -3991.4694    4.4545283   -3340.5032    298.47421    227.97176   0.99213757       0.4155 
 1170000    4219.4737   -3981.9614    6.1446746   -3354.0608    287.04528   -344.68687   0.97571095        0.415 
 1171000     4223.265   -4006.2347    7.0400585   -3353.9072    297.90903   -998.27837   0.97684677       0.4145 
 1172000    4227.0633    -3999.931    5.4392068   -3357.8816    293.90301    1430.2851   0.99928462        0.414 
 1173000    4230.8511   -4047.4643    7.4534618   -3379.6355    304.87467    298.61722   0.99061859       0.4135 
 1174000    4234.5624   -4006.0161    7.3680383   -3342.6788    302.84047   -1161.7992   0.97714017        0.413 
 1175000    4238.2796   -4004.1126    5.6727915   -3342.2049    302.96312   -633.38007   0.99734841       0.4125 
 1176000    4242.0844   -3970.6866    7.8578825   -3322.5105    295.61493    -608.0481    0.9895769        0.412 
 1177000    4245.8101   -3955.5776    7.8735625   -3307.8859    295.38403    21.899845    1.0004498       0.4115 
 1178000    4249.5423   -3982.0707    7.5485672   -3316.6429    303.72229   -598.61819     1.014432        0.411 
 1179000    4253.2759   -4025.9431    4.4936016   -3395.6349    288.91906    374.20314    1.0026899       0.4105 
 1180000    4257.0185   -3989.9337    5.0967744   -3347.8355    294.08366    124.95603   0.98795992         0.41 
 1181000    4260.7043   -3975.2998    9.0416248   -3375.6543    272.66333   -585.50246   0.97532157       0.4095 
 1182000    4264.3299   -4021.1671    3.2260756   -3375.2181    296.72506    451.80312   0.98235279        0.409 
 1183000    4268.0366   -3976.6968    7.0154097   -3313.1502    303.09991    1135.3225   0.98758858       0.4085 
 1184000    4271.7262   -4012.8211    8.5335117   -3310.2392    320.42047   -33.865432   0.98245053        0.408 
 1185000    4275.3847   -4045.7807    5.9632906    -3390.615    299.71646   -337.56134   0.99369204       0.4075 
 1186000    4279.1204   -3968.8844     8.199447   -3307.6038    301.50712   -38.741847   0.98632899        0.407 
 1187000    4282.8544   -3970.2189    5.2609629    -3328.522    293.82257     87.95355   0.99485701       0.4065 
 1188000    4286.4104   -3963.7247    10.478594   -3326.3698     289.4092   -23.288382   0.97586223        0.406 
 1189000    4290.1194   -3975.0878    4.4674727    -3307.318    306.22594   -791.26652   0.96830784       0.4055 
 1190000    4293.8131   -4033.5536    4.2686334   -3381.6015    299.01517    899.99063   0.99043455        0.405 
 1191000    4297.5547   -3990.1735    7.8037768   -3344.3159    294.56952    1102.2062   0.98560268       0.4045 
 1192000    4301.2396   -3965.6009    4.0538152   -3324.3011    294.19654   -640.52895   0.97952874        0.404 
 1193000     4305.021   -4032.9979    4.4511316   -3403.1202    288.73988    76.449903   0.98941262       0.4035 
 1194000    4308.7181   -4029.8987    7.5224523   -3384.2056    294.62343   -858.64025   0.99433387        0.403 
 1195000    4312.4679   -4028.4577    5.0783846   -3398.0814    288.68047    -697.1846   0.98782608       0.4025 
 1196000    4316.2261   -3976.2901    3.4616185   -3284.5542     317.7547     114.7303   0.98946911        0.402 
 1197000    4319.9615   -3948.9266    8.1139524   -3317.7709    287.63886   -973.29802   0.97759025       0.4015 
 1198000     4323.762   -4027.0612    4.2034487   -3356.8726    307.46452   -1057.3109   0.98091192        0.401 
 1199000    4327.5025   -4020.5474    5.7481391    -3373.497     296.0692   -862.77649   0.98457537       0.4005 
 1200000    4331.2615   -4048.4177    5.1542408   -3421.2543    287.16218     1113.918    1.0040315          0.4 
 1201000    4334.7113   -4046.4299    8.7774009   -3372.1213    307.25495   -424.51179   0.98742282       0.3995 
 1202000    4338.1745   -3996.5141    7.5140985   -3335.5216    301.69052   -108.11577   0.98448674        0.399 
 1203000    4341.6617   -3956.1845    7.8163844   -3303.8903    297.53526   -472.30771    0.9790212       0.3985 
 1204000    4345.0343   -3995.3768    5.8601116   -3356.6333    292.18248    605.31845   0.97619059        0.398 
 1205000    4348.5328   -3949.6431    7.9524025   -3247.4409    320.51342   -1105.6555   0.98175997       0.3975 
 1206000    4352.0109   -3995.7762    5.5294285    -3347.768    296.61235   -511.33347   0.97818523        0.397 
 1207000    4355.5446   -3997.5986    4.3570893    -3335.888    303.47958    1042.4697   0.99970095       0.3965 
 1208000    4358.9511   -4028.6029    5.9402402   -3402.4878    286.31532    1014.3829   0.98127017        0.396 
 1209000    4362.3775   -3987.4411    10.121172   -3313.7684    306.34099   -1232.1929   0.97238386       0.3955 
 1210000     4365.793   -4010.8382    4.6636905   -3331.7257    311.37195    1261.8401   0.98751648        0.395 
 1211000    4369.2173   -4024.2292     4.262449   -3363.0459    303.27978    550.00996   0.98101406       0.3945 
 1212000    4372.6293   -3982.8035    4.2721795   -3307.3775    309.85074   -375.41484   0.95864263        0.394 
 1213000    4376.0773   -4016.1301    5.0695364   -3341.6118    309.06358   -55.072235   0.98538706       0.3935 
 1214000    4379.4949   -3987.7417    4.4608338    -3342.318    295.91252    254.13859   0.98718859        0.393 
 1215000    4382.9383   -3977.7059     3.316983   -3295.9244    313.22587   -959.34896   0.98010048       0.3925 
 1216000    4386.3747   -3977.4233     4.356951   -3307.0948    307.45822   -711.12883   0.96834123        0.392 
 1217000    4389.8274   -3978.4335     4.988678    -3348.713    288.41916     623.5991   0.98958987       0.3915 
 1218000    4393.2259   -3965.1628    2.9874816   -3310.0676    301.05774    181.82636   0.99325402        0.391 
 1219000    4396.6593   -4000.9495    4.1360828   -3350.8405    298.22548   -443.82875   0.97929958       0.3905 
 1220000    4400.1192   -3980.9301    5.0363599   -3348.6052    289.59951   -915.68022   0.98520931         0.39 
 1221000    4403.5839   -3974.1849    6.5216052   -3306.9243    305.04256   -1047.1343   0.98557641       0.3895 
 1222000    4407.0293   -3937.2777    5.0882144   -3277.5259     302.2377   -669.30778   0.96804392        0.389 
 1223000    4410.7253   -3970.8171     5.190693   -3314.0445    300.81502   -431.15311   0.98971485       0.3885 
 1224000    4414.4065   -3987.1551     6.182186   -3342.3818    294.81754    225.60119    0.9830087        0.388 
 1225000    4418.1597   -3964.4309    4.0580706   -3275.0842    316.37633   -152.74451   0.99535157       0.3875 
 1226000    4421.7923   -4008.6595    5.2594152   -3376.8657    289.25135    95.971739    0.9911544        0.387 
 1227000    4425.5365   -4015.5238     4.337939   -3381.0124    290.93138    162.91229    1.0029175       0.3865 
 1228000     4429.277   -4024.5406    6.0502794    -3347.229    309.90037    792.88724   0.98188029        0.386 
 1229000     4433.021   -4003.7362    4.8551669   -3355.4465    297.05358   -147.73158   0.97079247       0.3855 
 1230000     4436.776    -4043.154    6.0184556    -3415.858    286.82439   -250.27264    0.9804005        0.385 
 1231000    4440.4642   -4022.1041    5.3440828   -3376.9645    295.37362   -726.40291   0.98922904       0.3845 
 1232000     4443.984   -4013.0118    7.5557383   -3361.6904    297.20647    -508.7502   0.98883294        0.384 
 1233000     4447.736   -4037.8025    5.7909777   -3380.6642    300.70671    448.91989     1.012182       0.3835 
 1234000     4451.415    -4049.669    4.1513464   -3381.9468    306.34994   -733.40797   0.98950836        0.383 
 1235000    4455.0427   -3978.5633    6.8844609   -3292.6044    313.50742    106.81325   0.98144619       0.3825 
 1236000    4458.7396   -3992.3879    6.9823371    -3333.837    300.80882    679.63128   0.98494114        0.382 
 1237000    4462.4578   -3992.6336    7.5807864   -3323.2443     305.5363    -149.3626    1.0034873       0.3815 
 1238000    4466.2838   -3945.5719    6.7080458   -3302.2132    293.92166    917.81508   0.98569475        0.381 
 1239000    4470.0937   -4024.9091    4.6439749   -3351.4782      308.758    36.326758    1.0014468       0.3805 
 1240000     4473.874   -4016.2009    8.0298024   -3342.4935    307.32251   -256.10848    1.0036956         0.38 
 1241000    4477.7805   -4022.7178    9.6637845   -3359.6382    301.66164   -416.76474   0.97872277       0.3795 
 1242000    4481.7043   -4045.2673    6.2336495   -3392.6353    298.42194    524.96236    1.0042623        0.379 
 1243000    4485.4658   -4029.9087    5.8093057   -3367.8281    302.97995    381.35673   0.96257148       0.3785 
 1244000    4489.1657   -3953.5349    8.0138805   -3317.5905     289.8959    702.31527   0.96548579        0.378 
 1245000    4492.8526   -3983.6725    8.5790418   -3314.4682    304.99005   -769.26445   0.98507112       0.3775 
 1246000    4496.6971   -3980.2127    7.3720166   -3319.4455    301.65214    280.97885   0.99372396        0.377 
 1247000    4500.6128   -3978.4119    5.8836827   -3313.9686     304.0364   -184.92641    0.9789873       0.3765 
 1248000    4504.3935   -4049.7566    4.8614092   -3409.5854    293.30264   -634.72206   0.98966646        0.376 
 1249000    4507.4453    -4005.659    9.8393204   -3317.1285    313.33051   -951.70079    0.9796088       0.3755 
 1250000    4510.5286   -3957.7325    10.441355   -3296.7689    300.32577    676.70679   0.99938734        0.375 
 1251000    4514.1312   -4003.7942    10.395021   -3374.9718     285.5086    1026.6834    1.0069717       0.3745 
 1252000    4517.7983   -3999.0979    5.3922936   -3339.8467    301.86622    1419.8747     0.999902        0.374 
 1253000    4521.3257   -3973.1156    6.4798459    -3306.139    304.93071    797.77956   0.97710266       0.3735 
 1254000    4525.0464   -3986.8827    9.2228136   -3323.8978    301.82149   -271.29122   0.98278838        0.373 
 1255000    4528.0321   -3988.6212    6.7936949   -3343.2511    294.81077   -1028.0081   0.97026547       0.3725 
 1256000    4530.3795   -3918.0782    8.1653953   -3257.4791    301.20825    133.95292   0.96853703        0.372 
 1257000    4532.7814   -4026.5595    5.1245928   -3421.0664    277.17135   -6.8347464   0.99451355       0.3715 
 1258000    4536.3616   -4025.7458    3.9303799   -3343.5672      313.126    -340.1364   0.98726302        0.371 
 1259000    4540.1118   -4050.9147     8.116953    -3402.878    295.43092    74.667497   0.99062148       0.3705 
 1260000    4543.9481   -3999.6569    7.4245382   -3333.3783    304.17234   -665.94381   0.97667478         0.37 
 1261000    4547.8541   -3989.2332     9.049883   -3330.5738    299.90438    -916.6067   0.95773793       0.3695 
 1262000    4551.6496   -3996.1478    6.3364456    -3355.621    292.78585   -503.28919   0.99990213        0.369 
 1263000    4555.4613   -4024.2888    7.1362452   -3367.1363    300.09217    368.33018   0.98800849       0.3685 
 1264000    4559.2471   -3987.2426    5.9684189   -3327.1982    301.96642   -1309.6532   0.96532208        0.368 
 1265000    4562.9507   -4018.5459     9.381525    -3383.882    288.67332    159.68798    0.9808166       0.3675 
 1266000    4566.5359   -3979.5162    4.9082097   -3283.5604    319.03509     942.8365    1.0006314        0.367 
 1267000    4570.1848   -3981.6054    10.510137   -3323.5085    298.97053    90.573932      1.00022       0.3665 
 1268000    4573.8835   -3997.3893    5.9425483   -3340.2643    300.63059    1514.9947    1.0106256        0.366 
 1269000    4577.6741   -3984.1083    7.0579239   -3324.9983    301.03205    1071.2482    1.0057659       0.3655 
 1270000    4581.5113   -3976.5544    5.5933503   -3323.4056    298.95612    1196.2996    1.0115544        0.365 
 1271000    4585.2549   -4026.7791    7.8726981   -3356.3074    305.90121    75.082047    1.0189541       0.3645 
 1272000    4588.9644   -3969.1986    6.3848077   -3348.5383    283.59179   -796.17106    0.9774677        0.364 
 1273000    4592.7152   -3982.0661    7.0117667    -3310.977    306.58376    1544.6843   0.99357653       0.3635 
 1274000    4596.4882   -3967.9314    7.8362469   -3296.1402    306.52724   -377.67869   0.98062664        0.363 
 1275000    4600.2498     -3962.67    3.5394355   -3311.9951    298.76219     389.8485   0.96739691       0.3625 
 1276000    4604.0363   -4015.4663    6.9448744   -3386.9659    286.95275    295.14903   0.99357861        0.362 
 1277000    4607.8286   -3971.5121    8.0111748   -3320.6114    296.80198    143.86809   0.96875654       0.3615 
 1278000    4611.6437   -4026.6609    6.3970888   -3330.1024    318.62594   -1269.2029   0.96602593        0.361 
 1279000    4615.4633   -4052.5553    6.9838102   -3396.3776    299.71249   -294.96553   0.99448853       0.3605 
 1280000    4619.2277    -4025.573    5.7170852   -3375.3215    297.56136   -151.68542    1.0036293         0.36 
 1281000    4623.0645   -3999.8581    4.1087294   -3315.0944    314.23708    1398.0015   0.99495756       0.3595 
 1282000    4626.9367   -3919.7908    6.3815853   -3272.3979    295.93489    331.48301   0.97919244        0.359 
 1283000    4630.7843      -4026.1    6.2360473   -3393.9898    288.94652    -440.1351    1.0011356       0.3585 
 1284000    4634.6389   -3960.3822    3.6557512   -3257.7565     322.6926    197.12061   0.98969627        0.358 
 1285000    4638.4307   -4038.1829     5.128641   -3402.9606    290.89454    64.120721    1.0062322       0.3575 
 1286000    4642.2485   -3971.4054     2.848875   -3322.5165    298.25648   -14.740863   0.97724558        0.357 
 1287000    4646.0972   -3946.2097    5.5303562   -3301.7061    294.99396   -734.35435   0.93940002       0.3565 
 1288000    4649.9898   -3950.8237    4.7679312   -3287.8482    303.87385   -1366.4664   0.95609172        0.356 
 1289000    4653.8785   -3947.1165    4.8287381   -3309.1065    292.31998   -466.94491    0.9797941       0.3555 
 1290000    4657.7621   -3956.2947     5.687856   -3297.8596    301.35302   -687.09441   0.99822006        0.355 
 1291000    4661.6238   -3959.4298     5.539041   -3306.7875    298.74731   -895.86362   0.97642476       0.3545 
 1292000    4664.9503   -4009.5909    5.6907955   -3349.1595     302.2733    928.25345    1.0048307        0.354 
 1293000    4668.0381   -3997.0911    4.5591951   -3350.3227    296.48789    490.43004   0.97740171       0.3535 
 1294000    4671.7122   -3998.9148    3.9480755   -3330.3238    306.84486   -295.27045   0.98228045        0.353 
 1295000    4675.5187   -4031.1392    5.9573515   -3314.5326    328.08451    271.90032   0.98604242       0.3525 
 1296000    4679.2886   -4002.1089    5.9725176    -3328.334    308.30349    593.31313    1.0044103        0.352 
 1297000    4683.1321   -4001.1795    5.3521232   -3360.8461    293.15096   -201.18097   0.99150605       0.3515 
 1298000    4686.8738   -4028.5881     4.870218   -3356.7579    307.91456    539.17851    1.0127585        0.351 
 1299000    4690.6042    -3995.091    5.0808983   -3342.6868    298.84896    374.25933     0.998637       0.3505 
 1300000    4694.3779    -3959.862    4.7317767   -3284.9288    309.41103    1541.2474   0.97342438         0.35 
 1301000    4697.8583   -4001.0304    5.4127485   -3375.4432    286.31512   -64.805633   0.98647215       0.3495 
 1302000    4701.2649   -3965.1082    4.2564689   -3322.3169    294.79156   -4.0405755   0.99501098        0.349 
 1303000    4704.5998   -3947.4036    4.3764129   -3313.5133    290.62683    336.92074   0.98967347       0.3485 
 1304000    4708.0099   -3999.8926     5.396834    -3333.089    305.35081    823.83707   0.98451158        0.348 
 1305000    4711.5328   -4053.5155    5.3399609   -3397.4728    300.40914   -375.62176   0.99755038       0.3475 
 1306000    4715.0928   -4014.8001    5.4778621   -3364.4559     297.7146   -601.92939   0.99427726        0.347 
 1307000    4718.5656   -3997.2927    4.9662769   -3287.2691    325.50291   -581.66915   0.98925265       0.3465 
 1308000    4721.8018    -3959.267    6.8053704   -3335.3805     284.8871   -782.99773   0.98552685        0.346 
 1309000    4725.3025   -3990.5259    5.7041313   -3343.2569    296.19044    345.22746   0.98004544       0.3455 
 1310000    4728.7591   -4005.6401    6.9157687   -3352.8364    298.18629   -731.68792   0.97441552        0.345 
 1311000    4732.1619   -3988.0989    7.9896977   -3354.2743    288.92842    312.10893    0.9717687       0.3445 
 1312000    4735.5971   -4035.0303    5.4410231    -3409.238    286.39682    561.36968     1.010787        0.344 
 1313000    4739.0631   -4017.9723    4.3977237   -3382.8144    291.20226   -283.12136    1.0053872       0.3435 
 1314000    4742.4745   -3931.0545    5.1145296   -3267.3318     304.0588   -783.80996    0.9782676        0.343 
 1315000    4745.7879   -4030.8972    4.9591266   -3363.4926    305.83035   -386.66186    1.0026952       0.3425 
 1316000    4749.2923   -4028.2529    5.3805192   -3389.0896    292.59766   -912.94343    1.0112565        0.342 
 1317000    4752.5129   -3959.7424    6.6946769   -3315.4095    294.37761   -400.74475   0.97835059       0.3415 
 1318000     4755.964   -4017.7232    3.8243761   -3364.0172    300.03003    449.20611    1.0121993        0.341 
 1319000    4759.4246   -4025.1332    5.1200263   -3373.4753    298.48629   -998.53924   0.98648134       0.3405 
 1320000    4762.8451   -4041.4421    5.1477933   -3392.7942    297.08387    794.71835    1.0149771         0.34 
 1321000     4766.635   -4058.0641    6.4506246   -3409.2573    296.55574    1355.8578    1.0055778       0.3395 
 1322000    4770.4639   -4049.7769    5.2338427      -3376.8    308.27606     760.8617    1.0034917        0.339 
 1323000    4774.2618   -4056.7898    3.8151902   -3428.6193    288.24533    861.99724    1.0178546       0.3385 
 1324000    4778.0359   -3983.7291    7.1883894   -3327.2406    299.76156   -577.99971   0.98712935        0.338 
 1325000    4781.9356   -4007.1661    6.5520119   -3359.9514    295.77392    726.91141   0.98846407       0.3375 
 1326000    4785.8469   -3985.0493     6.660434   -3335.5251    296.79009   -867.41951   0.97995794        0.337 
 1327000    4789.7399   -3907.6813    6.0037553   -3275.6191    289.03163    528.55442   0.97494242       0.3365 
 1328000    4793.5292   -4030.9969    6.1757317   -3369.6941     302.4517    476.33937   0.96433543        0.336 
 1329000     4797.346   -3951.4851    5.6946115   -3307.4084    294.72106    963.98774   0.96551732       0.3355 
 1330000     4801.158   -4010.3148    4.2367078   -3356.8785    299.71516   -1603.0253   0.96604587        0.335 
 1331000    4804.9811   -4017.8875    5.9999891    -3361.708    300.16753    767.62706   0.99193192       0.3345 
 1332000    4808.9848   -4001.3559    3.0648081   -3330.0923     308.4865   -1192.5199   0.97082221        0.334 
 1333000    4812.9016   -3986.6598    2.7400459   -3297.9961    316.66952   -893.97416   0.99890601       0.3335 
 1334000    4816.7544   -4043.2291     4.717031   -3369.3455    308.93328    740.39722    1.0215501        0.333 
 1335000    4820.5528   -4019.6335    4.4451721   -3389.2228    288.98872    -398.0776     1.004578       0.3325 
 1336000    4824.3708   -3988.2346    4.3196869   -3338.2435    298.08629   -1236.6636   0.98819848        0.332 
 1337000    4828.2387   -4010.6102    3.6221484   -3361.2325    298.12511   -621.64602    0.9996396       0.3315 
 1338000    4832.0582   -4082.3649     2.700467   -3416.9433    305.95763    1004.8607   0.99874191        0.331 
 1339000    4835.7911   -3988.3338    3.1696311   -3297.1805    317.62055   -493.74136   0.97298153       0.3305 
 1340000    4839.5579   -3995.0376    3.2853645   -3344.3951    298.86454   -353.54779   0.98384067         0.33 
 1341000    4843.4251   -4054.5774    5.1687247    -3396.874    301.25483    874.62135   0.99780241       0.3295 
 1342000    4847.2671   -3998.0704    5.2467063   -3369.4945    287.77158   -566.64082   0.98710175        0.329 
 1343000    4851.2014   -3968.8705    5.1047485    -3349.962      283.374   -329.54636   0.97634809       0.3285 
 1344000    4855.0764   -3966.0296    2.6916641    -3308.661    302.24388    344.95663   0.98514684        0.328 
 1345000     4858.926    -3992.146    6.3334407   -3334.3095    300.77862   -400.76449   0.99237031       0.3275 
 1346000    4862.8673    -3966.351    6.5284972   -3314.3291    298.00415    287.00623    1.0005689        0.327 
 1347000    4866.7965   -4016.9132    6.7769432   -3347.8996    305.73398    429.30193    1.0010924       0.3265 
 1348000    4870.7069   -3953.9571    6.3876606   -3303.0764    297.54228    671.06121    0.9876707        0.326 
 1349000     4874.611   -3987.8428    5.9229091   -3349.5859    291.92881   -82.058151    1.0012759       0.3255 
 1350000    4878.5984   -4026.0643    5.0889235   -3367.4597    301.70774   -1457.8633   0.98433372        0.325 
 1351000    4882.5413   -3972.3032    5.1049951   -3307.1292    304.73325   -202.34914   0.97205629       0.3245 
 1352000    4886.3334   -4019.1704    5.7643913   -3351.8213    305.43296    783.58673   0.99272464        0.324 
 1353000    4890.1154    -3968.858    6.7682492    -3302.148    304.67446    1180.3354    1.0046606       0.3235 
 1354000    4893.9269   -3968.3573    6.5492716     -3301.42    304.88053    985.88293   0.99521171        0.323 
 1355000    4897.8697   -3966.7242    4.2870972   -3296.4069    307.48533   -374.40982   0.97798073       0.3225 
 1356000    4901.8029   -4036.4021    5.3383694   -3369.0008    305.65377    913.86565   0.99947424        0.322 
 1357000    4905.6989   -3951.6035    7.4706076   -3304.6073    295.24899    741.21379   0.99054708       0.3215 
 1358000    4909.6025   -4063.8391     6.502114   -3411.4794    298.17226   -196.27698    1.0024947        0.321 
 1359000     4913.691   -3988.7797    6.1748673   -3367.8093     283.8319     389.4363    1.0093209       0.3205 
 1360000    4917.7638   -4009.8539    4.5859699   -3368.7293       293.87    357.93445    1.0021914         0.32 
 1361000    4921.8909   -3997.7983    3.9711581   -3366.4212    289.65372   -492.26054    1.0138374       0.3195 
 1362000    4925.8366    -4002.154     4.272073   -3365.7678    291.82731    413.36587   0.99708913        0.319 
 1363000    4929.6934   -3991.0531    4.6009006   -3327.6733    304.13762    318.30258     1.004545       0.3185 
 1364000    4933.5148   -4003.5079     2.889339   -3306.5267    320.44048    216.92896   0.96933375        0.318 
 1365000    4937.3518   -4030.3549    5.4800922   -3368.8056    302.88662    195.64315     1.008689       0.3175 
 1366000    4941.1891   -3986.6612    5.3344037    -3339.208    296.44618     306.0102   0.97538227        0.317 
 1367000    4944.9922    -4036.142     4.259417     -3416.79    283.96905    882.86176   0.99156947       0.3165 
 1368000     4949.107   -3973.0993    3.2745897   -3332.1397     294.3992     1646.825   0.99658328        0.316 
 1369000    4953.0841   -3944.3909    4.4710484   -3300.6052    295.15159   -174.18293    1.0072916       0.3155 
 1370000    4957.0598   -3980.6332    4.6562823    -3346.575    290.57518   -1080.2328   0.97944051        0.315 
 1371000    4961.0877   -4010.5681    7.7305663   -3331.2163    310.06655    508.28245    1.0097772       0.3145 
 1372000    4964.9647   -4020.3408    2.6863073   -3380.7301    294.04807   -546.15837   0.98389101        0.314 
 1373000    4968.7764   -3994.0422    5.0916794   -3323.6972    307.12665    700.35518    1.0004358       0.3135 
 1374000    4972.6888   -3981.6248    4.0439855   -3331.0443    298.48567   -1041.1031   0.98428024        0.313 
 1375000    4976.5695   -4027.5464    7.2296871   -3364.6913    302.68173    14.780669   0.98536171       0.3125 
 1376000    4980.4719    -3961.629    5.0274034   -3301.6061     302.3909    14.794681   0.97343474        0.312 
 1377000    4984.4296   -3992.9383    4.3034976   -3345.3053    297.00512   -981.10687   0.97400886       0.3115 
 1378000    4988.1795   -3987.4688    2.9403674   -3337.5039    298.71103   -471.45117   0.99194609        0.311 
 1379000    4992.0177   -4015.5215    4.7979514   -3335.3861    311.78218     144.0546   0.99263368       0.3105 
 1380000    4995.8159   -4021.7205    3.1645011   -3395.6241    287.58818    131.62771    0.9991552         0.31 
 1381000    4999.6276   -3982.6672    3.5207742   -3338.4961    295.76826   -621.43144   0.99017672       0.3095 
 1382000    5003.4328   -3980.9102    3.5029847   -3314.1335    306.21277    496.87255   0.98066721        0.309 
 1383000    5007.2472   -3976.4751    4.6014534   -3281.3984    318.77085    852.22939   0.98106127       0.3085 
 1384000    5010.9787   -4050.5303    4.4308855   -3366.5764    313.71453    107.65874   0.99305549        0.308 
 1385000    5014.7704   -4005.9742    4.2402968   -3360.8392    295.88103   -129.68802   0.97322774       0.3075 
 1386000    5018.5808   -4011.4678    4.1077408   -3352.4486    302.35211   -1122.6501    0.9733193        0.307 
 1387000    5022.3481   -3986.0091    3.2373499   -3319.2028    306.34905    989.29192   0.98483859       0.3065 
 1388000    5026.1683   -3998.6293    6.8811203   -3335.5531    302.94475   -229.66005   0.99118016        0.306 
 1389000    5029.9871   -4040.9426    8.2395264   -3380.6707    301.02293   -411.51577   0.98532394       0.3055 
 1390000    5033.7885   -3952.3522    9.5638655   -3304.5651    294.64772    -823.7046   0.97467094        0.305 
 1391000    5037.4499   -3985.0194    9.8614795   -3373.9771    277.54641    476.42696   0.99080999       0.3045 
 1392000    5041.0829   -4060.3416    5.8587323   -3421.0866    292.41924   -284.75401   0.99822129        0.304 
 1393000    5044.8205   -4028.8189    5.3591861   -3363.3585    304.74805   -187.54542   0.98774453       0.3035 
 1394000    5048.6043   -4018.4165    4.9156845   -3402.0931    282.26781   -105.10263   0.99529069        0.303 
 1395000    5052.4716   -4035.5778    9.0021958   -3390.1095    293.83647   -410.17655    1.0030303       0.3025 
 1396000    5056.3756   -4031.6106    9.3398729   -3385.2623    294.08686   -479.77833    1.0024952        0.302 
 1397000    5060.2118    -3971.605    8.8077114   -3316.1028    298.55862   -482.94172   0.98762177       0.3015 
 1398000    5064.0719   -3985.5729    8.5077912   -3354.0074    287.64626   -73.883454   0.97859007        0.301 
 1399000    5067.7897   -3979.0469    8.0603049   -3295.9213    311.65653   -73.326466    0.9755355       0.3005 
 1400000    5071.6272   -4000.0031    8.2563864   -3352.9138    294.92921    730.34593   0.99654106          0.3 
 1401000    5075.0278   -4015.1033    4.8308832   -3354.4483     302.7735    11.210382   0.98152227       0.2995 
 1402000    5078.4072   -4040.7137    7.5501682   -3403.7783    290.56749    189.32733   0.99264346        0.299 
 1403000    5081.8096   -4018.0857    7.5005923   -3340.4608    309.37543    267.43955    0.9914196       0.2985 
 1404000    5085.2608   -3973.5661     6.867346   -3340.1942    289.23756   -481.96924   0.97813495        0.298 
 1405000    5088.7136    -3964.275    8.1006012   -3337.4746    285.63431   -125.77111   0.96449507       0.2975 
 1406000    5092.0445   -4035.4186    3.7526377   -3393.5532     294.5967     694.2572   0.98695972        0.297 
 1407000    5095.4815   -4016.8202    6.2537787   -3329.3378    314.50193    -740.8694   0.99190331       0.2965 
 1408000    5099.0285   -4000.5406    7.4428514    -3361.327    291.66881   -418.01337   0.97811572        0.296 
 1409000    5102.4415   -4004.7408    7.0067848   -3332.5974    307.07276   -543.71293   0.96620291       0.2955 
 1410000    5105.9593   -4008.6585    8.0619884   -3346.2718    302.08125   -1457.0012   0.95870955        0.295 
 1411000    5109.4529   -3990.6805    5.4761564   -3351.3534    292.62917    -1470.198   0.97394153       0.2945 
 1412000    5112.9146    -3946.876    6.6682993   -3297.1586    296.87563    979.57438   0.98206552        0.294 
 1413000    5116.4092   -3997.7278    9.3550686    -3373.061    284.07018   -974.02035   0.96629648       0.2935 
 1414000    5119.8734   -3983.8268    7.0906952   -3333.2188    297.09184   -51.506331   0.99910367        0.293 
 1415000    5123.3418   -4035.9002     13.07785   -3368.7032    301.98636    529.00956    0.9968075       0.2925 
 1416000    5126.7367   -3994.1256    11.442296   -3366.5682     284.4411   -794.14945   0.96535902        0.292 
 1417000    5130.2505   -4017.2846    12.078444   -3359.2601     298.2131   -153.11045   0.98557984       0.2915 
 1418000     5133.747   -4056.9621     3.872537   -3417.5381    293.41423    1309.0551    1.0013266        0.291 
 1419000    5137.1938   -4029.4692    14.385077   -3378.1323    294.06075     338.0419   0.98654459       0.2905 
 1420000    5140.6167   -4004.2126     9.869492   -3319.9992    311.32349   -542.45725   0.97737367         0.29 
 1421000    5144.3332   -3996.5542    7.3719581   -3337.0718    301.05898    773.68903    0.9905652       0.2895 
 1422000    5148.0755   -4000.7661    12.622026   -3328.1704    304.68918    138.05757   0.97482974        0.289 
 1423000    5151.9437   -4033.2349    13.517683   -3374.0282    298.09445   -473.69354   0.96391079       0.2885 
 1424000    5155.8543   -4050.4402    8.8051964   -3395.6338    298.23857    540.91523   0.98950201        0.288 
 1425000    5159.7155   -4028.6399    9.8606737   -3357.7597    305.17203   -898.79648   0.98172131       0.2875 
 1426000    5163.6583   -4028.4876    4.2737982   -3330.2609    320.37633    916.47218   0.99314921        0.287 
 1427000    5167.4312   -4011.2254    10.996164   -3374.6021    288.83247   -170.45969   0.98667826       0.2865 
 1428000    5171.1607   -3992.3005    7.4195882   -3356.6147    290.05085   -71.677341   0.99541709        0.286 
 1429000     5175.005   -3976.8189    7.6774351   -3323.3911    298.12275    690.06905     1.012854       0.2855 
 1430000    5178.8093   -3945.6055    9.1440096   -3275.6254    305.08735    188.53011   0.99224947        0.285 
 1431000    5182.6417   -4012.0978    5.1769331   -3332.3253    311.43968    715.14981    1.0020226       0.2845 
 1432000    5186.4646   -4002.8426    5.2426876   -3367.0023    291.12721    515.92073   0.98396516        0.284 
 1433000    5190.2415   -4002.0924    11.258088   -3338.9525    300.95346    111.38144    1.0040933       0.2835 
 1434000    5194.0586   -3973.1986    8.7360333   -3284.1885    314.06128     243.7655   0.99473191        0.283 
 1435000    5197.9184   -4013.6455    4.6207619   -3363.2565      298.131   -347.70704   0.99292691       0.2825 
 1436000    5201.7281   -4069.8084    6.6139864   -3374.2981    318.04192    323.18245   0.99250952        0.282 
 1437000     5205.522   -4007.0663    7.8719504    -3383.377    284.30362   -410.92165   0.99398695       0.2815 
 1438000    5209.3421   -4045.4397    12.059688   -3374.4586    304.20341    1537.8317   0.98810717        0.281 
 1439000    5213.2141   -4002.0653    7.9277339   -3345.7764    299.32808    351.34034   0.97692575       0.2805 
 1440000    5217.0862   -4002.4296    8.9003654    -3328.276    307.12662    366.36715    0.9738009         0.28 
 1441000    5220.8479   -4057.0372    12.175176   -3421.8144    287.64158    147.50718    1.0185364       0.2795 
 1442000    5224.6698   -4050.6904    8.8479273   -3384.2676    303.58176   -44.394626   0.99595403        0.279 
 1443000    5228.3993   -4043.3748    12.538136   -3411.9516    285.71991    1145.2389    1.0189939       0.2785 
 1444000    5232.0612   -4023.5446    8.9751059   -3370.1604    297.50353    47.588554    1.0003281        0.278 
 1445000    5235.8781   -4024.6231    9.5518427   -3403.9484     282.1363    932.04553   0.99514722       0.2775 
 1446000     5239.645   -3995.2886    2.3513985   -3327.9293    307.01333   -219.13769    0.9909135        0.277 
 1447000    5243.4726   -3980.8191    9.2381226    -3352.973    285.59195   -70.382664    1.0082486       0.2765 
 1448000    5247.3518   -3976.7454    3.5177577     -3347.74    288.76805   -389.96778   0.98681053        0.276 
 1449000    5251.0805   -4021.8358    9.9795747   -3392.1688    286.09029    446.63206   0.97070452       0.2755 
 1450000    5254.9369   -3996.1075    6.7760797    -3378.932    281.80233   -357.20382   0.97840114        0.275 
 1451000    5258.7408   -3954.6023    6.8220462   -3323.8447    288.05152   -262.77447   0.96510969       0.2745 
 1452000    5262.5689   -4004.8902    4.6316605   -3351.4193    299.54881   -30.891359   0.99421205        0.274 
 1453000    5266.3599   -4035.7646    3.4961757   -3357.8493    311.35818   -262.48505    1.0011192       0.2735 
 1454000    5270.1191   -4029.1465    9.8255287   -3375.1856    297.37715   -1643.1185   0.99425337        0.273 
 1455000    5273.8851   -4016.6982     8.601753   -3348.1397    304.68142   -448.26233   0.99688736       0.2725 
 1456000    5277.6313   -4017.5219    6.2610498   -3370.9871    295.59437   -392.14724   0.98344588        0.272 
 1457000    5281.3955   -3992.9008    4.9185735   -3348.9222    295.03401    453.03486    1.0074397       0.2715 
 1458000    5285.1919   -4007.1976    11.378046   -3373.4807    287.31438    689.48682    1.0114856        0.271 
 1459000    5289.0032   -3989.1755    10.396906   -3298.0931    314.25118   -538.08952   0.99135259       0.2705 
 1460000    5292.7682   -4008.9461    4.7681704   -3345.4227    304.12668   -636.05869    0.9700743         0.27 
 1461000    5296.5069   -3959.7818     4.953184   -3308.7895    298.25605   -1238.6516   0.96730011       0.2695 
 1462000    5300.0492   -4013.4003    8.4482613   -3334.0448     309.7369      1108.94     1.011325        0.269 
 1463000    5303.2924   -4018.0091    5.8890691   -3363.9832     299.2245    1229.1922   0.99649949       0.2685 
 1464000    5305.7634   -3998.3892    8.0114623   -3318.8607    310.01845    1085.4959   0.98707815        0.268 
 1465000    5309.4197    -3911.228    8.7268908   -3288.1561    283.62389   -582.46455   0.97629776       0.2675 
 1466000    5313.0271   -4013.7328     6.060131   -3336.6602    309.78545    944.52687   0.99444467        0.267 
 1467000    5316.6683   -4001.4045    4.5488384   -3376.4129    286.43905    170.32601   0.97472533       0.2665 
 1468000     5320.142   -4013.8069    5.5143916   -3390.8919    285.03455   -37.152405    1.0036878        0.266 
 1469000     5323.697   -3977.9408     4.737202   -3304.7692    308.59524   -532.60011   0.95640099       0.2655 
 1470000     5327.178    -3962.643    5.3452091   -3296.6543    304.99848   -1172.5142   0.94785789        0.265 
 1471000     5330.744   -3975.0616     5.047817   -3297.2331    310.60183   -314.29762   0.97355152       0.2645 
 1472000    5334.2761   -4026.9698    5.7227375   -3344.6084    312.38291    585.19897   0.97278658        0.264 
 1473000     5338.008   -4049.9545     4.931387   -3377.5967    308.12989    246.69508    1.0175318       0.2635 
 1474000    5341.8175   -3956.8868    6.4029514   -3285.6638    306.92664    45.508416   0.98641497        0.263 
 1475000    5345.7053   -3991.4957    5.9825277   -3327.6262    303.72583   -895.46983    0.9746818       0.2625 
 1476000    5349.4648   -4027.9429    3.1522852   -3376.8922    299.11444   -503.11606   0.98558005        0.262 
 1477000    5352.8397   -4049.2808    6.1538476   -3418.6433    288.30456   -184.93722   0.97088236       0.2615 
 1478000    5355.3669    -3957.271    4.8464981   -3315.4314    294.07984   -1273.4107   0.97459012        0.261 
 1479000    5358.9259   -3985.1225    5.2543857   -3361.4764    285.49208    480.20281   0.98988476       0.2605 
 1480000     5362.498   -3962.0298    7.3705727   -3309.4879    297.85539    163.42046   0.98675918         0.26 
 1481000    5366.2733   -3988.3223    6.6639983   -3319.0997    305.88259   -891.45859   0.98803487       0.2595 
 1482000    5370.1529   -4045.5703    5.7194814   -3373.2892    307.73068    1384.3631    1.0138151        0.259 
 1483000    5374.0702   -3949.0753    5.9778389    -3299.178    297.27746   -175.42444   0.98082245       0.2585 
 1484000    5377.9602   -4001.3872    6.1932574   -3344.2679    300.51217     268.8817   0.99481282        0.258 
 1485000    5381.8035    -4039.116    4.7637939    -3376.101    303.89401   -1083.4414   0.99531025       0.2575 
 1486000    5385.5855   -4012.3249    4.6947936   -3328.6021    313.48599   -132.31248   0.97605788        0.257 
 1487000    5389.0655    -4005.193    7.1600491   -3350.3312    299.02364   -249.48361   0.97769369       0.2565 
 1488000    5392.4259   -4019.5658    4.3561276   -3372.9598    296.50667    466.74453    1.0151916        0.256 
 1489000    5396.0567    -4019.571    4.6823909   -3387.9302    289.44707   -630.07571   0.99094114       0.2555 
 1490000    5398.8457   -4033.7012    6.1972172   -3335.2447    319.59449    245.03539    1.0049053        0.255 
 1491000    5402.6745   -4004.2979     3.870799   -3356.5615    297.25266   -626.29203    1.0075822       0.2545 
 1492000    5406.4714   -3947.0561    4.4473036   -3284.5655    303.79798   -610.33563    1.0044117        0.254 
 1493000    5410.2895   -3994.8216     6.441124   -3319.3514    308.86982    385.28244     1.003845       0.2535 
 1494000    5414.1087   -4003.2382     5.177959   -3341.9158    302.92134   -1714.0968   0.99572198        0.253 
 1495000    5417.9053   -3969.3588    3.9507512     -3343.27    287.22167    934.51289   0.99436386       0.2525 
 1496000    5421.6201   -3979.6326    5.9741594   -3298.5057    311.69695    459.68105    1.0104833        0.252 
 1497000    5425.4176   -4022.4217    6.3196766   -3331.9699     315.8424   -329.61906   0.99046455       0.2515 
 1498000    5429.1602   -4022.7389    7.5693974    -3383.551    291.59849   -355.27914   0.98636634        0.251 
 1499000    5433.0201   -3993.7791    6.3249863   -3346.2908    296.00502   -1207.7612   0.98497329       0.2505 
 1500000    5436.8409   -3982.9461    7.3606651   -3342.2551    292.38882   -147.79652    0.9946322         0.25 
 1501000    5440.3079   -3992.0598    5.2628741   -3357.4395    290.55467    -725.3874   0.98636642       0.2495 
 1502000    5443.8335   -4008.2936    8.8589895   -3311.0035    317.82713    164.66902   0.98396792        0.249 
 1503000    5447.3697   -3998.1184    5.6651086   -3333.6922     304.1294    1099.2347   0.96915011       0.2485 
 1504000      5450.81   -4015.4577    8.6480215   -3373.3706    292.43903    72.610095   0.98771045        0.248 
 1505000    5454.3452   -4019.0379    9.6486772   -3348.7002    305.01946   -590.56472   0.99498967       0.2475 
 1506000    5457.7615   -3957.3639    8.8828596   -3310.3273    294.61565    -111.1173    1.0104452        0.247 
 1507000    5461.2646   -3977.1614    8.8692797   -3336.0548    291.88421    432.73435    1.0032939       0.2465 
 1508000    5464.7241   -4001.0345    10.682914   -3338.1629    301.09511   -888.54894   0.98994367        0.246 
 1509000     5468.217   -4005.7318    8.5808278   -3335.8497    305.30216    592.80095   0.99615752       0.2455 
 1510000    5471.6281   -3978.7904    9.9721268   -3327.9422    295.87242    155.62148    1.0044024        0.245 
 1511000    5474.9902   -3978.2864    9.6743868   -3323.1144    298.00604   -890.58901   0.98495393       0.2445 
 1512000    5478.4133   -3980.7616    4.2566106    -3298.802    312.87428    772.83727   0.98381011        0.244 
 1513000     5481.883   -4029.4043    4.6841507   -3376.5113    299.25774   -137.04354   0.99020256       0.2435 
 1514000    5485.3261   -3974.9353    5.9669808   -3311.7029     303.4389    603.79231   0.99381379        0.243 
 1515000    5488.7613   -3970.7428    3.0977788   -3307.9514    304.55992    503.90094   0.97722914       0.2425 
 1516000    5492.1726   -4011.0119     5.186325   -3375.2413    291.12108    -1046.937    0.9569383        0.242 
 1517000    5495.6968    -4006.172    7.3104346   -3363.6593    293.25303   -539.42635   0.97185452       0.2415 
 1518000    5499.1711   -4022.6451    10.193788   -3396.3443    284.43732   -33.583776   0.99295689        0.241 
 1519000    5502.6701   -4034.7396    7.2465363   -3363.6963    306.45421   -585.56303   0.97783605       0.2405 
 1520000    5506.1916   -4057.6961    6.8664112   -3411.6097    295.10791   -871.70217    0.9832957         0.24 
 1521000    5510.0094   -4011.7487      7.34517   -3325.4213    313.46488   -33.105908   0.99266369       0.2395 
 1522000     5513.801   -4053.7955    7.1531871   -3407.0077    295.29926   -313.95699   0.98565278        0.239 
 1523000    5517.7031   -4029.1927    5.4979894   -3348.2106    311.84989   -1201.2204   0.97515795       0.2385 
 1524000    5521.6354   -3960.8193    7.8849158   -3306.9932    298.21088   -146.64064   0.98841615        0.238 
 1525000    5525.3684   -3977.9428    5.6634627   -3353.2939    285.76624    198.92528   0.99090896       0.2375 
 1526000    5529.2063   -3979.3771    5.3810747   -3305.2448    308.74153   -586.91828   0.98894614        0.237 
 1527000    5533.0647   -3980.2441     5.567972   -3360.6815    283.46214    71.039371   0.99144465       0.2365 
 1528000    5536.8764   -4016.5257    8.1369566   -3326.2655    314.91498    87.361379   0.97967522        0.236 
 1529000     5540.682   -3975.6339     8.054959   -3313.0879    302.15807   -482.72079    0.9906429       0.2355 
 1530000    5544.4454   -4005.6068     4.703966   -3329.3487    310.03556   -500.04395   0.98872666        0.235 
 1531000    5548.2138   -3999.7704    3.5772433   -3325.1793    309.78613   -294.89152   0.98182535       0.2345 
 1532000    5552.0588   -4005.3647    5.4680978   -3361.1411    294.89344   -573.22485   0.98866977        0.234 
 1533000    5555.9831   -3989.4066    7.3362731   -3295.5803    316.93099   -1224.5327   0.97974089       0.2335 
 1534000      5559.82   -3977.5741    6.2062642   -3309.3194    305.64706   -913.71726   0.98706434        0.233 
 1535000       5563.7   -3985.9708    6.5109897   -3334.5576    297.73115    280.46939   0.98728779       0.2325 
 1536000    5567.5034   -3961.5465    6.4662594   -3283.9404     309.8443       106.66   0.97589787        0.232 
 1537000    5571.3388   -3968.9919    3.4935562   -3314.9804    300.32378   -1090.2317   0.98181176       0.2315 
 1538000    5574.8917    -3967.313    5.6575439   -3316.4082     297.8905    -1233.198   0.97995107        0.231 
 1539000    5578.4867   -3991.2205    5.7115284   -3363.2034    287.29905   -388.34086   0.98528644       0.2305 
 1540000    5581.9686   -3984.5907      5.98447   -3333.8288    297.67356   -1003.2538   0.99243793         0.23 
 1541000    5585.5979   -4000.9432    5.1767962   -3351.5273    297.42504    375.98138    1.0008594       0.2295 
 1542000    5589.1264   -3950.8149    6.0468686   -3315.0247    290.73281   -812.75651   0.98114054        0.229 
 1543000    5592.8147    -3974.041    4.9763527   -3316.2481    301.38501    16.623658   0.98500101       0.2285 
 1544000    5596.0539   -3967.7765    5.0623754   -3319.6264    296.89349   -631.77228   0.99895778        0.228 
 1545000    5599.7582   -4022.1191    6.2012681   -3365.3808    300.33262   -818.59484   0.99603747       0.2275 
 1546000    5603.2441   -3986.6778    4.6530179   -3341.0905    295.89935   -46.744683   0.98205841        0.227 
 1547000    5606.9622     -3997.62     6.615949   -3353.4018      294.361   -307.43499    1.0024078       0.2265 
 1548000    5610.5729   -3989.5059    3.6703364   -3350.6253    293.25668    1680.3844    1.0195304        0.226 
 1549000    5614.2206   -4003.1643     4.860213   -3328.6361    309.16474    92.162995    0.9969412       0.2255 
 1550000    5617.4581   -3984.0035    5.2145163   -3308.3615    309.51539   -310.33521   0.97509605        0.225 
 1551000    5620.2493   -3990.9198    6.5466859   -3305.6375    313.35102    351.62681   0.98405582       0.2245 
 1552000    5623.7645   -4029.6612    5.4326253   -3349.8009    311.36217    673.05273    1.0079005        0.224 
 1553000     5627.458   -4011.2522    4.9555813   -3360.3828    298.19824    695.34229    0.9957276       0.2235 
 1554000    5630.9874   -4019.2958    6.3333359   -3353.8073    304.31133    1227.3099    1.0006485        0.223 
 1555000    5634.6356   -4035.0593    7.6456666   -3381.7655    298.07554    846.64954    1.0096385       0.2225 
 1556000    5638.2616   -4001.2495     4.967246   -3346.2951    300.07875   -1188.4106   0.97542076        0.222 
 1557000     5642.033   -4013.6595    6.8799432   -3374.3856    291.95652    734.05227   0.98412243       0.2215 
 1558000    5645.1026   -4043.0464    7.2398227   -3391.2508    297.57121   -272.91205   0.98548234        0.221 
 1559000    5648.3298   -3951.3743    6.2287227   -3271.1953    311.14179     816.9968     1.004651       0.2205 
 1560000    5651.8907   -3989.9129    8.8804717   -3310.6492    309.49496   -1353.6545   0.97562562         0.22 
 1561000    5655.5211   -3982.0649    11.527476   -3320.0931    300.28979   -225.55847   0.99813296       0.2195 
 1562000    5659.1271   -4026.5947    10.367019   -3396.4077    286.15154   -101.18492   0.99512335        0.219 
 1563000    5662.8158   -4004.0996    9.1059723   -3309.9852    316.24697   -381.98401   0.96731388       0.2185 
 1564000    5666.3532   -3999.3419    6.8877545   -3333.7389    304.10823    630.59347    1.0102173        0.218 
 1565000    5670.0783   -3986.7303    5.3780606   -3331.2949    300.11115   -588.16304   0.98849013       0.2175 
 1566000    5673.6266   -3993.5723    6.0761112   -3350.0191    294.30323    26.493789   0.98401691        0.217 
 1567000    5677.2217   -4019.3518    7.2820834   -3399.0064    283.03218   -845.13073   0.96933415       0.2165 
 1568000    5680.7642   -4020.5202    5.2873231   -3346.7759    308.60567    12.706343   0.97555935        0.216 
 1569000    5684.4538    -3983.162    8.6512991   -3341.6668    292.16423    1109.7141   0.99034099       0.2155 
 1570000    5687.9771   -4019.2032     8.111239   -3347.5204    306.35027   -744.41162   0.98954822        0.215 
 1571000    5691.1054   -4066.3885    5.5078588   -3421.6631    295.10673    1054.2609    1.0027823       0.2145 
 1572000    5693.4454   -4014.8678    7.3842528   -3363.1416    297.47253   -1030.8876   0.97076356        0.214 
 1573000    5696.9499   -4020.5896    5.2091309   -3385.1829    290.94253    806.15793    1.0118413       0.2135 
 1574000    5700.4897   -3955.9871     5.083745   -3254.9203    321.31361   -185.40594   0.98294184        0.213 
 1575000    5702.9893   -3964.7078    5.1076311   -3273.4765    316.76186   -572.43892   0.97859117       0.2125 
 1576000    5706.4599   -4011.2262    4.5523415   -3348.8005    303.71958    1402.8801   0.99275267        0.212 
 1577000    5710.0907   -4003.6939    5.6225359   -3349.9254    299.22874    570.33046     1.007061       0.2115 
 1578000    5713.6608    -3993.981    4.3353107   -3368.7078    286.66761   -216.18357   0.97635683        0.211 
 1579000    5717.1555   -4056.9546    5.2016104   -3397.1632    302.20364    114.47904    1.0008396       0.2105 
 1580000    5720.6789    -4003.622    5.4750571   -3321.1567     312.5452    458.06722   0.97933118         0.21 
 1581000    5724.1069   -4059.4059    4.0140079   -3382.5325    310.63813    93.580828   0.99649646       0.2095 
 1582000    5727.8272   -4009.7444    4.0358843   -3362.7269    296.84453    -506.4711   0.98721174        0.209 
 1583000    5731.6186   -3966.9522    3.8117958   -3348.5315    283.74573    68.306888   0.98442853       0.2085 
 1584000    5735.4392   -3972.1324    3.5017025   -3318.9809    299.92299   -1502.7847   0.96782324        0.208 
 1585000    5739.1879   -3986.3128    4.4380337   -3349.9193    291.75409   -154.01918   0.98063263       0.2075 
 1586000    5742.9767   -4065.6593     2.690124    -3413.825    299.68959   -294.55376   0.99899259        0.207 
 1587000     5746.737   -3991.6495    5.5835389   -3344.5539    296.16608    854.42145     0.978674       0.2065 
 1588000    5750.3261   -4027.7697    6.3508291   -3364.0357    303.49328    257.95516   0.99454475        0.206 
 1589000      5754.02   -4022.0758    3.1521523   -3401.7823    284.91485   -169.69033   0.99667457       0.2055 
 1590000    5757.6142   -3974.3249    3.7289034   -3336.9947    292.51391    294.23632   0.97649278        0.205 
 1591000    5761.2731   -3981.2549    5.2626242   -3332.2101    297.21411    526.44461   0.99609966       0.2045 
 1592000    5764.7921   -3925.8814    5.2658321   -3253.1816    308.13336    117.07862   0.97878266        0.204 
 1593000    5768.3976   -4001.4133    6.9573339   -3295.2328    322.80949    124.90977   0.97570094       0.2035 
 1594000    5771.8567   -4011.3586    5.1395522   -3377.5386    290.24207    623.26001   0.99685253        0.203 
 1595000    5775.6076   -4018.6777    6.6932192   -3382.0579    290.81738   -239.86774   0.99548139       0.2025 
 1596000    5779.2216    -4012.379    7.0796824   -3365.6701    295.29679   -1218.3085   0.96664016        0.202 
 1597000    5782.8746   -4030.5329    8.3284637   -3368.7714    301.66959    410.93598    1.0016969       0.2015 
 1598000    5786.4029   -4031.0802    8.6041215   -3375.4183    298.72634    1062.1744   0.99078285        0.201 
 1599000     5789.986   -4006.3719    7.5472295   -3372.8926    288.97329   -864.59212   0.98014968       0.2005 
 1600000    5793.4576   -3998.4368    10.604143    -3313.456    311.33862   -404.77028   0.97930851          0.2 
 1601000    5796.8089    -4005.374    7.1502027   -3328.3256    309.27102   -1317.3788   0.97273048       0.1995 
 1602000    5800.1248   -4015.1618    6.3786495   -3358.2326    300.33883   -342.85724   0.99581175        0.199 
 1603000    5803.5151   -3990.2331    3.2490107    -3325.571    305.35377   -655.57814   0.97492886       0.1985 
 1604000    5806.1298   -3985.9231    4.7208272   -3309.9105     309.9144   -419.76083   0.97787699        0.198 
 1605000    5809.1647   -3993.1536    8.8514697   -3324.3832     304.6639    1222.3709   0.99862203       0.1975 
 1606000    5811.2798   -3984.2419    3.1828902   -3325.6763     302.5697    1064.5376   0.98562291        0.197 
 1607000    5814.4351   -4028.6536    5.3633922   -3372.9544    300.23972   -528.94335   0.97550551       0.1965 
 1608000    5816.6848   -4013.9694    5.2726419   -3393.7878    283.88425     97.03581   0.99117467        0.196 
 1609000    5819.7987   -3988.3273    4.1129314   -3320.9917    306.18915   -451.04773   0.95438303       0.1955 
 1610000    5822.9895   -3997.8038    7.8833087   -3333.2742    303.15306    301.67688   0.99480975        0.195 
 1611000    5826.1686    -3998.613    6.9082123   -3353.9138    294.44815    321.40195   0.98191522       0.1945 
 1612000    5829.5223   -3983.0244    8.1056759    -3292.882    314.87503     205.1655   0.99812101        0.194 
 1613000    5832.7384   -4007.2884    6.5940271    -3321.747    313.44878    734.44574   0.99642211       0.1935 
 1614000    5836.1137   -4030.7941    6.2029423   -3361.9653    305.91363    -446.4455   0.99231052        0.193 
 1615000     5839.228   -4038.1774    6.7872153    -3392.964    294.74144   -423.02613   0.96864747       0.1925 
 1616000    5842.1143   -4003.3384    6.8342124   -3368.4071    289.97283   -438.96664   0.96811817        0.192 
 1617000    5845.4502   -3970.5751    4.8608172   -3271.4982    320.49786    903.29833    1.0013273       0.1915 
 1618000    5848.8571   -4022.9619    3.7674156   -3386.1877    292.23942   -693.10224    0.9811172        0.191 
 1619000    5852.2737   -4014.9102     4.115189   -3374.6408    293.69248   -497.10896   0.97088412       0.1905 
 1620000    5855.6628   -3992.4976    4.8734694   -3344.3662    296.97205   -402.70968   0.99464303         0.19 
 1621000    5859.2013   -3989.4722    6.2188275   -3364.3352    285.73517    -235.9225   0.99987652       0.1895 
 1622000    5862.8595   -3951.9753    6.4641386   -3286.4813    304.25347   -862.02205   0.99027892        0.189 
 1623000    5866.4434   -3992.2646    7.7164936   -3331.5935    301.44874   -265.57676   0.99988489       0.1885 
 1624000    5870.1979   -3978.0645    4.9943704   -3364.6606    280.88366    333.16182   0.97407344        0.188 
 1625000    5873.8359   -4042.8276    7.1451844   -3405.8029    290.79564   -266.35031    1.0043044       0.1875 
 1626000    5877.4839   -3965.4227     6.222268   -3275.4146    315.68251    886.75482   0.98295499        0.187 
 1627000    5881.0277   -3985.5338    7.2832008   -3333.6829    297.57676    177.99866    1.0057821       0.1865 
 1628000    5884.6432   -3988.7937    4.7321356    -3322.193    305.56402   -540.48366   0.98997031        0.186 
 1629000    5888.2164   -3971.6106    6.2172303    -3287.215    313.09374    535.13303   0.98988852       0.1855 
 1630000     5891.994   -3977.2623    4.9327066   -3333.2916    295.02387    1198.5867   0.99827896        0.185 
 1631000    5895.7286   -3998.9103    4.5988943   -3331.1328    306.16883   -231.67306   0.98334304       0.1845 
 1632000    5898.5384   -3972.8986    4.5879711   -3315.5955    301.33814     765.7731   0.98431898        0.184 
 1633000    5900.8818   -4031.4975    4.7015877    -3388.623    294.62446   -497.30774    0.9776798       0.1835 
 1634000    5904.4423   -3996.5962    5.8062259   -3329.5077    305.29335    25.568451   0.99135744        0.183 
 1635000    5907.8569     -3966.56    2.7845445   -3331.4079    291.94436    481.13192   0.98792564       0.1825 
 1636000    5911.5477   -4009.0466    4.0952308   -3382.5882    287.32562    283.88301   0.98612976        0.182 
 1637000    5915.3196   -3995.2537    6.3330043   -3355.4079    292.47309      25.7312   0.99182449       0.1815 
 1638000    5918.8853   -3997.7809    3.0034632   -3350.5427    297.42303   -489.11015   0.97700576        0.181 
 1639000    5922.5378   -3972.8558    4.7723367   -3327.4454    295.76258    339.92322    0.9779556       0.1805 
 1640000    5926.0354   -3942.4733    5.0817893   -3300.4258    294.06715    -209.5652   0.98110841         0.18 
 1641000    5929.6658   -3997.8878    7.0627935   -3338.1923    301.30008    503.59822    0.9806708       0.1795 
 1642000    5933.2247   -3961.6844    4.9134656     -3272.24    316.02651   -569.35818   0.97890902        0.179 
 1643000    5936.8647   -3976.4309    3.9634929   -3305.5133    307.91188   -1917.9044   0.97539162       0.1785 
 1644000    5939.8277   -4019.5278    4.9539861   -3358.3734     302.9472   -260.05202   0.98767958        0.178 
 1645000     5942.132   -3962.7563    3.5592721   -3298.8301    304.87077   -222.28601    1.0001994       0.1775 
 1646000    5944.4604   -3985.1674    3.0501145   -3341.9708    295.53564   -69.117372    0.9921526        0.177 
 1647000    5947.2178   -3980.9507    6.1145569   -3325.9634    299.56426   -293.70518   0.97364816       0.1765 
 1648000    5950.8203   -4048.5048    4.8792531   -3363.4549    314.01351    257.83056   0.98350741        0.176 
 1649000     5954.327    -3988.265    6.7174394   -3354.6672    289.41105   -38.335079   0.96707205       0.1755 
 1650000    5957.8165   -3979.6763    7.7561435   -3344.9609    289.44751   -140.09635    1.0008274        0.175 
 1651000    5961.6057   -4039.6516    4.2452958   -3352.0829    315.46905     1147.132    1.0147582       0.1745 
 1652000    5965.4073   -4047.9003    5.6456272    -3352.992    318.21102   -196.66822    1.0096317        0.174 
 1653000    5969.2649    -4026.772    4.7076457   -3380.5138    296.18384   -228.16384    1.0108022       0.1735 
 1654000    5973.0875   -4023.2773    4.7455328   -3341.2713    312.67001    346.29374     1.001763        0.173 
 1655000    5976.7823   -4013.5579    4.9820017   -3360.3211    299.27897   -598.04163   0.98964194       0.1725 
 1656000     5980.416   -4018.4468     4.767145    -3349.927    306.43385     452.7032   0.99090236        0.172 
 1657000    5984.0351   -3993.3917    4.5684196    -3330.615    303.87418   -58.015702   0.99093974       0.1715 
 1658000    5987.7909   -4010.8147    5.9326572   -3308.9505    321.28981   -231.01591    1.0140442        0.171 
 1659000    5991.6279   -4012.2307    4.8432907   -3352.0758    302.53689   -351.07288   0.99377854       0.1705 
 1660000    5995.4376   -4053.2869    5.3621156   -3430.1383    285.21272    42.112526    1.0072944         0.17 
 1661000      5999.23   -3988.7318    4.5991431   -3366.4813    285.15033      634.889    1.0006538       0.1695 
 1662000    6002.9397   -3945.3344    6.1298535   -3296.2137    296.84875   -749.95577   0.96371919        0.169 
 1663000    6006.7568   -4004.6737    4.1229296   -3354.4115     298.3023   -71.773037   0.98776096       0.1685 
 1664000    6010.5504    -3982.039     2.587671   -3322.0467    303.50315    1404.4138   0.99414718        0.168 
 1665000    6014.2869   -3994.5398     2.221519   -3326.6514    307.31758    242.73722   0.99418206       0.1675 
 1666000    6017.9852   -3944.2929    3.4366402   -3288.5495    301.14965    726.17476   0.98600143        0.167 
 1667000    6021.6839   -3975.0712    5.1647392   -3313.2435    303.16075    533.12297    0.9951235       0.1665 
 1668000    6025.4777   -4065.9477    2.9429209   -3423.1415    295.40489    826.10771    1.0204118        0.166 
 1669000    6029.2584   -3984.1734    4.4888992   -3328.3727    300.69029   -365.25566    1.0012313       0.1655 
 1670000    6033.0448   -3982.2931    7.6363714   -3311.0324    306.37461    776.20973    1.0107119        0.165 
 1671000    6036.9924   -4004.8563     6.174112   -3344.8782    301.84087    799.98537   0.99731573       0.1645 
 1672000    6040.8396   -3991.5955    9.5898166   -3326.3339    302.70315   -864.91545   0.98984771        0.164 
 1673000    6044.6372   -3976.0226    5.3802763    -3322.832    299.07378   -28.605218    0.9801939       0.1635 
 1674000    6048.5502   -3988.8669    6.8045097   -3333.8663    299.25184   -756.41764   0.99716001        0.163 
 1675000    6052.4536   -4008.6785    4.4466458   -3342.1273    305.67299   -173.28249   0.98875386       0.1625 
 1676000    6056.4805   -4027.2105    4.4560569   -3377.9935    297.66598    526.26983   0.97589494        0.162 
 1677000     6060.378    -4026.188    5.1086477   -3367.6411    301.67201    999.61878    0.9923959       0.1615 
 1678000     6064.159   -4011.3004    6.7556919   -3353.1361    300.73497    287.40199     0.992161        0.161 
 1679000    6067.9349   -3973.2035     5.316305   -3312.8908    302.39137    542.52946   0.98672241       0.1605 
 1680000    6071.6024   -3995.4547    4.6789934   -3370.1138    286.54022    596.34657    0.9767894         0.16 
 1681000    6075.5334   -3975.5783    4.0380239   -3312.5184    304.24979    154.26298   0.99254866       0.1595 
 1682000    6079.5565   -4011.9464    4.9228428   -3321.5831    316.44642      1491.06     1.000404        0.159 
 1683000    6083.4415   -4032.2912    6.7443512   -3368.9221    303.14311   -770.70454    1.0053633       0.1585 
 1684000    6087.3074   -4016.0154    5.0180035   -3364.9037    298.28122    2218.4324    1.0328541        0.158 
 1685000    6091.1718    -4006.317    3.9844848   -3366.0761    293.73969    355.58666    1.0228221       0.1575 
 1686000    6094.9809   -3961.8202    5.5437366   -3330.3314    288.97926   -152.59012   0.98612431        0.157 
 1687000    6098.6334   -3988.0999    3.4927949   -3342.2006    296.57901    247.83286   0.96604746       0.1565 
 1688000    6102.3563   -4004.4789    7.0061866   -3325.8459     310.0691   -87.983759    0.9828254        0.156 
 1689000      6106.08   -4012.4817    8.3399065   -3368.7455    293.34258    589.74365   0.98943126       0.1555 
 1690000    6109.8741   -4012.4227    10.483286   -3380.9362    286.69774    495.38145   0.99327198        0.155 
 1691000    6113.7248   -4037.7605     8.211701   -3359.6146    309.28766   -362.36707   0.99317265       0.1545 
 1692000    6117.5707   -4080.8241    12.671675   -3455.8975    282.65895   -1097.4166    1.0068276        0.154 
 1693000    6121.4416   -4036.8279    9.8106694   -3380.3593    298.54174   -760.25777   0.99046119       0.1535 
 1694000    6124.2349   -3980.7119    10.020044    -3314.918    302.75028    167.95312   0.99239705        0.153 
 1695000    6126.8935   -3979.3333    8.5894303   -3304.8118    307.44001    535.95362    1.0015303       0.1525 
 1696000    6130.5618   -4025.4279    6.2397077   -3386.8561    291.92796   -1391.7542   0.99684374        0.152 
 1697000    6134.3368   -3979.1199    5.7896973   -3312.4318    305.11614    723.08697    0.9905737       0.1515 
 1698000    6138.1997    -4017.006    6.5021918   -3395.3111    284.01524   -191.75696    1.0018245        0.151 
 1699000    6142.0416   -4019.5992    4.3093411   -3394.0167    286.82238   -766.07746    0.9976486       0.1505 
 1700000    6145.9048    -4038.819    4.3322753   -3363.9643    309.55927    1838.4279    1.0132792         0.15 
 1701000    6149.3896   -3928.6889    4.0123119   -3266.9334    303.65944   -481.44698   0.96538248       0.1495 
 1702000    6152.8175   -4040.1742    4.3863037   -3362.8597     310.6699    -914.1003   0.97555051        0.149 
 1703000    6156.3462   -3982.5309    4.8595303   -3316.2956     305.3365    948.12447     1.009137       0.1485 
 1704000    6159.5554   -4005.2065    3.8970969   -3353.9955    298.84458   -642.40135   0.98735072        0.148 
 1705000    6163.0135    -4039.636    4.3969902    -3385.061    300.16689    1260.8856    1.0100813       0.1475 
 1706000    6166.4566    -3938.447    5.5212404   -3258.6731    311.28137    78.647171   0.99135695        0.147 
 1707000     6169.923   -3995.6013    2.3378127   -3328.8248    306.75061   -85.671191   0.96972653       0.1465 
 1708000    6173.4927    -4050.723    4.5427326   -3403.1434       296.87    14.116783   0.97985494        0.146 
 1709000    6177.0094   -4039.3747    6.1580243   -3383.3544    300.02109   -555.07282   0.98338229       0.1455 
 1710000    6180.6133   -4004.5358    6.1728337   -3365.6429     292.1071    434.90169    0.9866126        0.145 
 1711000    6184.1864   -3985.7168    5.5371178   -3333.1162    298.72895   -11.732479   0.99090373       0.1445 
 1712000    6187.7741   -3966.8213    5.0014569   -3284.9258    312.50079   -77.415035   0.99568333        0.144 
 1713000    6191.2377   -4019.5493    6.5474445   -3370.9187     296.4297   -979.85675    1.0017597       0.1435 
 1714000    6194.7713   -3984.6131    4.6488893   -3330.9137    299.64633   -666.36281   0.98833135        0.143 
 1715000    6198.2824   -4007.0845    4.1366616   -3337.7973    307.07923   -454.27525    1.0090152       0.1425 
 1716000     6201.881   -4041.2771    4.0798923   -3399.7997     294.2665    -351.0623   0.99770841        0.142 
 1717000    6205.4111   -3994.0489    6.9039121   -3314.2873    310.63736    82.597686   0.99206479       0.1415 
 1718000    6208.9559   -4021.9823    7.3910891   -3359.5568     302.4089    487.18655   0.99687931        0.141 
 1719000     6212.383   -3985.5251    4.0068277    -3294.909    316.98602    1389.5303   0.99277098       0.1405 
 1720000    6215.8745   -4027.6523    5.1198292    -3380.161    296.56282     468.4954   0.97538846         0.14 
 1721000     6219.706     -3950.45    3.5133358   -3318.7106    290.03233    445.14288   0.97598807       0.1395 
 1722000    6223.5831    -4016.616    5.8518478   -3329.8784    314.34364   -250.31579   0.98324377        0.139 
 1723000    6227.3562   -4022.2632    8.2528837   -3346.2643    308.27748   -206.39123   0.98570413       0.1385 
 1724000    6231.1062   -4016.1867    7.9591976   -3345.2339    306.08344    637.30738   0.97740685        0.138 
 1725000    6234.8642   -4012.6684     9.518911   -3403.8926    276.65817     435.0058   0.98996905       0.1375 
 1726000    6238.6668   -4031.8688    5.7749911   -3376.3228    299.97894    689.33738   0.98270621        0.137 
 1727000    6242.5548   -3958.7134    8.4730224    -3284.786    307.21949    383.11541   0.98523578       0.1365 
 1728000    6246.3463   -3987.8288    3.4584562   -3346.1847    294.63035   -510.70141   0.95708291        0.136 
 1729000    6250.1385   -3942.4035    8.9643651   -3289.6525    297.21615   -125.23813   0.97705081       0.1355 
 1730000    6253.9995   -3970.7739     10.67731    -3322.903    294.17235   -746.22162   0.97291151        0.135 
 1731000    6257.8041    -3966.072    8.1066105   -3300.7368    303.42192   -306.29338   0.97153638       0.1345 
 1732000     6261.564   -4014.3496    7.8581202    -3362.521    297.30104    110.57133    1.0032721        0.134 
 1733000    6265.2148   -3985.6984      5.38481   -3294.5015    316.61799    437.25968   0.98780818       0.1335 
 1734000    6269.0419   -4036.9699    4.9343024   -3374.7822    303.43335     661.6533   0.99269948        0.133 
 1735000    6272.8193   -4045.9041    2.8010088    -3404.728    294.71786    694.30939    1.0007967       0.1325 
 1736000     6276.708   -3978.0295    5.6543862   -3334.5547    294.46175   -1344.3816   0.96671838        0.132 
 1737000    6280.2645    -3970.783    5.8749409   -3300.3533    306.80413   -912.43848   0.96609813       0.1315 
 1738000    6282.5578   -4042.3554    4.3624949   -3403.0006    293.15607   -226.08688   0.97544056        0.131 
 1739000    6284.8764   -4004.5298    6.8182321   -3360.6853    294.09508    150.86757    0.9721855       0.1305 
 1740000    6288.4178   -4022.4791    3.6903592   -3359.5561     304.3471   -187.19049   0.99720836         0.13 
 1741000    6292.2424   -4002.6877    2.6250558   -3341.8245    303.88798    111.06343    1.0019923       0.1295 
 1742000    6295.9661   -4024.7078    4.1608862   -3371.5542    299.61966   -248.16123   0.99628091        0.129 
 1743000    6299.7256   -4005.4163    2.2683934   -3367.8043    293.31827    6.3794942    1.0065434       0.1285 
 1744000    6303.4585   -3985.9004      3.43084   -3344.4158    294.56951    631.80642    1.0130767        0.128 
 1745000    6307.2372   -4026.2498    2.8871517   -3371.7393    300.83409    367.68051   0.99263326       0.1275 
 1746000    6311.0986   -4002.2931    3.4272002   -3328.8394    309.33028   -119.82053   0.98552787        0.127 
 1747000    6314.8932   -3935.3206    3.4537789   -3299.3167    292.02864    856.88616   0.97271695       0.1265 
 1748000    6318.6061   -3995.3925    3.3627526   -3359.7556    291.90118   -1336.6218   0.97108582        0.126 
 1749000    6322.4474    -3996.774    3.1729161   -3362.5829    291.32139    632.24166    1.0026401       0.1255 
 1750000     6326.317   -3964.5807    4.3177403   -3285.7447    311.40398   -27.631036   0.97283492        0.125 
 1751000    6330.0684   -3956.3311    4.6709359   -3290.8513    305.07482    499.80388   0.98870239       0.1245 
 1752000    6333.9461   -3963.8262    3.8993048   -3329.9725    290.83025   -391.02259   0.99898807        0.124 
 1753000    6337.8264   -3964.8028    2.1039793   -3300.0616    305.91889   -1096.7922   0.97075761       0.1235 
 1754000    6341.6184   -3947.2038    5.0079357   -3268.5439    311.00405   -1054.0669   0.96937552        0.123 
 1755000    6345.4009   -4010.3401    7.3941749   -3360.1071    296.77859    -1231.453     0.990974       0.1225 
 1756000    6349.1452   -3983.2069    5.7052614   -3331.6959     298.1483   -27.114255    1.0017057        0.122 
 1757000    6352.9405   -4006.1104     4.537378   -3325.4377    312.15057    146.67031   0.98936584       0.1215 
 1758000    6356.6939   -4025.4207    3.3789806   -3420.5518    277.68912   -294.37077   0.99736439        0.121 
 1759000    6360.6725   -3986.3622    7.8777854   -3293.8242    316.08621    111.62544   0.97240334       0.1205 
 1760000     6364.474   -4003.2813    5.8646007   -3334.4058    306.09143   -174.85107   0.99591316         0.12 
 1761000    6368.4423   -3961.6136    7.2721193   -3332.7446    286.97184   -998.85897    1.0069838       0.1195 
 1762000    6372.3402   -3992.1535    8.3458992   -3309.5232    311.29601   -610.89452   0.99786355        0.119 
 1763000    6376.1151   -4050.2516     4.483256    -3383.285    305.84784   -877.79088   0.99752784       0.1185 
 1764000    6379.9264    -4009.941    5.6610016   -3344.8491    304.43861    1163.0571    1.0193408        0.118 
 1765000    6383.7629   -4065.0952    5.0156537   -3411.2414    299.54828    167.94963   0.98635957       0.1175 
 1766000    6387.6157    -3980.595    7.5105152   -3331.5833    296.16101   -407.17821   0.98660535        0.117 
 1767000    6391.4459   -4000.5861    5.6985152   -3348.6844    298.33182    460.11504    1.0089782       0.1165 
 1768000    6395.2221   -3986.4453    6.0924833   -3317.3248    306.09931     1199.767   0.99076836        0.116 
 1769000    6399.0103   -3984.5181    11.486908   -3316.7793    302.97096    1144.5455    1.0120439       0.1155 
 1770000    6402.8324   -4012.3842    5.3846396   -3347.9332    304.27032    355.22685    1.0002482        0.115 
 1771000    6406.6912    -3968.873    6.2269905   -3287.5721    311.66052    1044.2132   0.99850223       0.1145 
 1772000    6410.5085   -3984.4694    6.9982622   -3334.7884    296.70649   -179.13553   0.97081004        0.114 
 1773000    6414.2294   -4033.5036    7.5608859   -3372.8793    301.49894    101.20281      0.98072       0.1135 
 1774000    6417.9451   -4042.9096    8.3467514   -3364.8976    309.16347   -113.57926   0.98029606        0.113 
 1775000    6421.7296   -3979.2596     5.917673   -3309.9807    306.25314   -538.03608   0.96696484       0.1125 
 1776000    6425.5493   -4043.8773     6.323883     -3377.77    304.60139    -770.6258   0.99680763        0.112 
 1777000    6429.3978   -4030.7641    6.4941223    -3380.342    297.28144     1187.816    1.0136931       0.1115 
 1778000    6433.2897   -3993.2915    8.8453105   -3307.9215    312.33033    -530.5528   0.99027153        0.111 
 1779000    6437.1414   -4051.0245    7.3645085   -3385.3187    303.93557    2092.4816   0.99853844       0.1105 
 1780000    6441.1216   -3997.8531     5.556574   -3308.9001    315.50277   -547.06928   0.98524805         0.11 
 1781000     6445.015   -4038.4563    3.9565323   -3378.7599     302.7346    526.75458    0.9586967       0.1095 
 1782000    6448.7873   -3978.4323    5.1110444   -3336.1368     294.1681   -311.05769   0.98654482        0.109 
 1783000    6452.6159    -3971.848    3.0720782   -3312.6223    302.92559    -585.4965   0.97043517       0.1085 
 1784000    6456.3885   -4005.6184    4.8242069   -3347.5913    301.56335   -227.56601    1.0008063        0.108 
 1785000    6460.2321   -3973.0456    2.9228302   -3309.3435    305.06113    145.90386   0.99617684       0.1075 
 1786000    6464.0972   -3950.2419    5.5611912    -3292.096    301.27798   -362.49289   0.98121431        0.107 
 1787000    6468.1433   -3973.1753    4.9651613    -3333.783     292.8952   -271.70167   0.97858002       0.1065 
 1788000    6472.0384   -3989.6721    5.2046257   -3305.5249    313.44655    82.419216   0.98615322        0.106 
 1789000    6475.7778   -4023.3361    5.6576616   -3358.9504    304.11412    122.86869   0.97781192       0.1055 
 1790000    6479.6358   -4026.3898    6.0277061    -3374.235    298.29666    688.70587    1.0021413        0.105 
 1791000    6483.4732   -4026.9034    6.0458117   -3373.0193    299.08668     99.70443   0.99285373       0.1045 
 1792000    6487.3015   -4009.5278    8.5249519   -3339.3975    305.44253   -82.317683   0.98445362        0.104 
 1793000     6491.165   -4008.3564    8.8082524    -3325.561     311.1588    225.39949    0.9865302       0.1035 
 1794000     6495.095   -4038.7221    6.7588277   -3387.1837    297.67456    216.93561   0.98956467        0.103 
 1795000    6498.9306   -3997.9002    8.1265455   -3333.6503    302.91164   -83.471945   0.97896324       0.1025 
 1796000    6502.7182   -3998.4361    7.5927821   -3337.2058      301.764   -416.87459   0.97463265        0.102 
 1797000    6506.5229   -3962.5632    7.7854375    -3322.881    291.72697   -489.21675   0.98500593       0.1015 
 1798000    6510.3794   -4015.1989    6.9436778   -3365.4159    296.77884   -970.79229   0.98067749        0.101 
 1799000    6514.2123   -4015.1742    7.0291988   -3365.7105     296.5919   -574.76765   0.97302492       0.1005 
 1800000    6518.0526   -3961.7899      6.24895   -3317.2171    294.69417   -1096.1856   0.98855601          0.1 
 1801000    6521.4882   -3989.7635    5.8679229   -3305.0275    313.41216    283.85211     0.995895       0.0995 
 1802000    6525.0001   -3983.3535    3.4680969   -3305.4326    311.37378    740.35679   0.98178759        0.099 
 1803000    6528.4419    -4043.218    7.1758737   -3371.0724    306.99573    -184.8663    1.0049632       0.0985 
 1804000    6531.9179   -3972.8291    7.4787534    -3318.724     298.5272   -58.652423   0.98473931        0.098 
 1805000    6535.5255    -4027.479    5.2499672   -3383.8325    294.72775   -1286.7081    0.9779448       0.0975 
 1806000    6539.1574   -4008.1034    7.8528177   -3339.9688    304.83146    1098.0552    1.0158146        0.097 
 1807000    6542.6624   -3986.2726    8.3353563   -3293.4552    316.00398    157.33434    0.9772435       0.0965 
 1808000    6546.1722   -3992.9612    6.3048568   -3368.7166    285.28346     -316.552   0.99809082        0.096 
 1809000    6549.7425   -3974.7682    4.7006896   -3350.1239     286.2086   -195.97847    0.9936722       0.0955 
 1810000    6553.2969   -4000.2598    5.9238383   -3336.6626     303.6272    564.71096   0.98963128        0.095 
 1811000    6556.7257   -4004.0042    5.0021711   -3350.0598    299.59632   -745.19462   0.97286306       0.0945 
 1812000    6560.2192   -4037.2836    6.8878276   -3400.9594    290.59108   -1137.6638   0.99187684        0.094 
 1813000    6563.7612   -4033.4765    8.0207588   -3351.7833    311.01349    369.69679   0.98722234       0.0935 
 1814000    6567.2318   -4004.8185    6.2509266   -3349.6598    299.58045    307.45655   0.99986776        0.093 
 1815000    6570.7358   -3950.2585    5.2726765   -3272.7873    310.33303   -1182.1997    1.0071964       0.0925 
 1816000    6573.1833   -4029.6946    8.9035157   -3366.8282    301.91423    -466.4102    0.9789465        0.092 
 1817000    6576.1297   -4004.3395    9.6375605   -3337.8039    303.26929   -881.39463   0.99563944       0.0915 
 1818000    6579.3368   -3994.7487    6.8761075   -3344.7144    296.92603    304.80274   0.97736062        0.091 
 1819000    6582.8738   -3964.5695    5.3008524   -3311.2954    299.14896    1032.6805   0.99674765       0.0905 
 1820000    6586.3616   -3963.1451    4.6782184   -3315.7123    296.73971   -467.70019   0.97897378         0.09 
 1821000    6590.1483   -3960.4751    3.5935701   -3298.6958    303.86377    306.56155   0.98590977       0.0895 
 1822000    6593.9884   -3963.9949    3.6685496   -3280.7624    313.73343    284.48096   0.99257277        0.089 
 1823000    6597.7612   -3985.3349    2.1001674   -3317.4403    307.37646    1539.4541    1.0058946       0.0885 
 1824000    6601.5668   -3989.0899    4.5752608   -3320.3558    306.62138    294.68712   0.98925558        0.088 
 1825000    6605.3312   -4021.8547    6.5174946    -3347.632    308.25862    253.75982   0.97928135       0.0875 
 1826000    6609.0616    -4049.274    3.3211196    -3381.095    306.94409   -719.92503   0.97289988        0.087 
 1827000    6612.9109   -3986.8226    3.3686642   -3334.2463    299.71883    -931.7464   0.95741842       0.0865 
 1828000    6616.7692   -4039.7641    4.1244727   -3375.7703    304.64101    155.86144   0.96636616        0.086 
 1829000    6620.5967   -3947.4434    5.1661714   -3290.4567    300.92517   -237.34555   0.95855211       0.0855 
 1830000    6624.4644   -3965.6315    2.1557214    -3302.555    305.12644   -692.85048   0.98082741        0.085 
 1831000    6628.2802   -3956.5655    5.3281428   -3323.7344     289.6985    209.32657   0.97693665       0.0845 
 1832000    6632.1848   -4017.7853     2.726635   -3354.7269    304.85453   -252.00617    0.9901386        0.084 
 1833000    6636.0782    -3958.829    2.7186727   -3280.0548    312.11371     148.1852   0.97910951       0.0835 
 1834000    6639.9836   -3994.0467     3.169989   -3299.5301    319.17313   -516.99311   0.98767781        0.083 
 1835000    6643.8242   -4002.7768    3.6028469   -3351.9194     298.8172    628.87907   0.98047155       0.0825 
 1836000    6647.6569    -4033.337    3.8725798   -3356.2631      310.796   -420.97826   0.97558246        0.082 
 1837000    6651.4715   -3998.5849    3.9989726   -3361.9581    292.06447   -588.62959   0.98035858       0.0815 
 1838000    6655.3294   -4008.2168    3.5087401   -3339.6289    307.04625    1382.4515    1.0018154        0.081 
 1839000    6659.2193   -4019.4248    4.5048922   -3375.9587    294.98842    703.28002    1.0087804       0.0805 
 1840000    6662.8143   -3996.1445    3.1532859   -3361.2413    291.65922    316.23503   0.99383846         0.08 
 1841000    6666.4659   -4003.1315    4.0849632   -3342.6174    303.05279   -440.06285   0.99844289       0.0795 
 1842000    6669.9957   -3971.9857    6.3350382   -3319.4462     298.3324   -83.626414    1.0011574        0.079 
 1843000    6673.4716   -4018.2322    5.5244304   -3363.9919    299.49183    278.96259   0.98603813       0.0785 
 1844000    6677.2254   -3987.9841    4.0122269   -3371.9687    282.54273    462.08644    0.9922093        0.078 
 1845000    6681.0307   -4023.5787    8.9429835   -3357.0598    303.58221    -394.5742   0.99039384       0.0775 
 1846000    6684.7617   -3992.0429    7.1083801   -3331.0929    301.85821    16.321142   0.96657113        0.077 
 1847000    6688.5218   -3986.0164    7.1020082   -3310.0942    308.77337   -146.82041   0.96688001       0.0765 
 1848000    6692.2485   -4038.4706    6.9217138   -3392.1516     295.1897   -30.438412   0.98374242        0.076 
 1849000    6695.9667   -4012.1991    5.2128432   -3384.5855      287.343    309.01575   0.99878073       0.0755 
 1850000    6699.6548   -4035.2726    6.0741799   -3357.6834    310.01745   -1159.3705   0.97794682        0.075 
 1851000    6703.3224   -3979.6053    2.9623449   -3301.1146    311.87031    877.95571   0.97476182       0.0745 
 1852000    6707.0642   -3976.2178    7.1446567   -3312.8605    302.95285   -468.31426   0.97891396        0.074 
 1853000    6710.8311   -4014.7435    4.4623506   -3365.4307     297.7073    469.97685   0.99637326       0.0735 
 1854000    6714.6839   -3999.4754    4.3015488   -3305.1304    318.57149   -217.90029   0.98815423        0.073 
 1855000    6718.5162   -4007.7021    2.9867701   -3371.2738    292.44017   -674.14244   0.98613933       0.0725 
 1856000    6722.2523   -3986.3272    4.6877214   -3329.8987    300.88833    156.17853   0.96528621        0.072 
 1857000    6725.9209   -3975.9705    3.7887884   -3322.7754    299.81057   -870.94727   0.98949936       0.0715 
 1858000    6729.7653   -3995.7952    5.0174771   -3324.7118    307.50178    118.73064    0.9993843        0.071 
 1859000    6733.6571    -3983.389    3.6638415   -3367.2249     282.7722   -517.56419   0.97865147       0.0705 
 1860000    6737.4183   -3999.5421    6.3847179   -3312.4518     314.2605   -704.40245   0.98177029         0.07 
 1861000     6741.276   -4009.0406    3.3169376   -3387.6115    285.36309   -1089.6099   0.98364045       0.0695 
 1862000    6745.0688   -4017.1299    4.4532354   -3348.1431    306.79438   -95.974367   0.98596414        0.069 
 1863000    6748.8594   -4017.0043     3.304873   -3331.6498    314.88095    62.539328   0.99868817       0.0685 
 1864000    6752.6345   -4004.9696    6.6900737   -3360.7917    294.30819    1474.1624   0.97291199        0.068 
 1865000    6756.4407   -4046.8401    7.2449469   -3360.1596    313.67414   -99.653292   0.98622804       0.0675 
 1866000    6760.1815   -4010.1482    4.4291007   -3312.4104    320.07897     1589.244   0.99526884        0.067 
 1867000    6763.9392   -3968.4677    4.4083802   -3310.0481    301.93655   -826.13042   0.97137872       0.0665 
 1868000    6767.7239   -4020.5333    3.7204333   -3368.0577    299.50997    1055.3933   0.99991599        0.066 
 1869000    6771.5875   -4029.4988    3.2063934   -3354.5317     310.1309    1080.5571     1.020233       0.0655 
 1870000    6775.4051   -3960.4581    6.8025624   -3309.3838    297.44015    650.05738   0.98762985        0.065 
 1871000    6779.0762   -4017.2632    4.6711673   -3379.2938      292.374   -1176.5286   0.97291713       0.0645 
 1872000    6782.8881   -3912.7037    7.6861003   -3239.8779    307.07417    999.48331   0.99651371        0.064 
 1873000     6786.762   -3956.0192    4.2623795   -3322.2797    290.60994   -1305.8426   0.97606654       0.0635 
 1874000    6790.5848   -4002.2403     2.462751   -3307.0553    319.80821   -44.014357   0.99772184        0.063 
 1875000    6794.3522    -4031.964    7.7043155   -3404.7829    285.99306    215.63668    1.0048505       0.0625 
 1876000     6798.116   -4050.4513    7.5049106   -3366.6508    312.22456    134.36473   0.99301288        0.062 
 1877000    6801.8494   -3950.2909    6.0047859   -3289.3827    302.34842   -172.17284   0.97460349       0.0615 
 1878000    6805.5965   -3999.8206    5.5872774   -3330.9721    306.20698   -600.23514   0.99462994        0.061 
 1879000    6809.3529   -4025.0266    4.4754771   -3365.8716    302.24503    1231.2338    1.0057785       0.0605 
 1880000    6813.0571   -4005.0233    4.0230108   -3356.2143    297.67753   -1426.5533   0.97959594         0.06 
 1881000    6816.2039   -4009.9278    5.2025141   -3380.9101    287.99599     157.1109   0.99485528       0.0595 
 1882000    6819.9706   -3956.6275    5.6998295   -3279.1332    310.14649    850.52067   0.99675813        0.059 
 1883000    6823.7292   -4038.0132    5.3135338   -3398.1154    292.96772    -988.8239    0.9883105       0.0585 
 1884000    6827.5142   -4054.7601    5.4039139   -3371.8842    312.76765    937.35188   0.98872325        0.058 
 1885000    6831.3649   -4057.1382    3.5065643   -3406.8463     298.6006   -531.51898   0.98014096       0.0575 
 1886000    6835.1306   -3994.6221    4.3571505   -3345.8773    297.49362   -1005.6268    0.9769788        0.057 
 1887000    6838.8613    -4047.183    3.4643668   -3368.2826    311.82771     334.1366   0.99447983       0.0565 
 1888000    6842.5802   -4034.4364    5.9367182    -3371.617    303.26222   -276.32298   0.97315784        0.056 
 1889000    6846.3394   -4104.6972    5.5730758   -3447.0509    301.04179   -350.74595   0.96318153       0.0555 
 1890000    6850.0987   -3972.7656    4.8954012   -3270.8758    321.78054   -5.1549873   0.96009361        0.055 
 1891000    6853.9384   -3978.7174    3.6614468    -3335.976    295.04321    243.75733   0.97434075       0.0545 
 1892000    6857.7908   -4012.5202    2.7411631    -3345.253    306.79089   -284.56575   0.99359811        0.054 
 1893000    6861.5906   -4025.9964    6.0101823   -3379.0766     295.8879    938.11771    1.0135156       0.0535 
 1894000    6865.4163    -3980.553    5.8535799   -3340.1279    292.96182   -642.38993    0.9594402        0.053 
 1895000    6869.1658   -3985.8126    5.0421919   -3338.7486    296.40138   -658.72235   0.96190282       0.0525 
 1896000    6872.9197    -3961.995    6.3213748    -3321.489    292.78323    663.12948     0.983581        0.052 
 1897000    6876.7459   -3978.5838    4.1712619   -3340.7985    292.51976   -180.04199   0.97923728       0.0515 
 1898000    6880.4836   -3961.5897    7.5098162   -3320.3703    292.56392   -253.03953   0.96205868        0.051 
 1899000    6884.2399    -4006.505    5.4801666   -3321.1256    313.88821    37.722011   0.97880853       0.0505 
 1900000    6888.1529   -3963.0244    6.3639219   -3294.7708    305.57379    749.38841    0.9867594         0.05 
 1901000    6891.7279   -3993.2147    4.4563869    -3337.317    300.75009   -784.25621   0.98837286       0.0495 
 1902000    6895.2367   -4014.3976    3.1333239   -3355.0359    302.96016   -262.36473   0.99039913        0.049 
 1903000    6898.7948   -4050.0264    6.2500091   -3396.8075     298.6853    1388.6904    1.0154027       0.0485 
 1904000    6902.3714    -3993.318    7.3699684   -3317.7289    308.49587   -305.13926   0.99948807        0.048 
 1905000    6905.8687   -4006.6189    3.7017514   -3362.5501    295.63741    328.14978    1.0070835       0.0475 
 1906000    6909.4483   -4031.1799    5.3776957   -3374.2298    300.81059   -523.77793    1.0115251        0.047 
 1907000    6913.0535   -4035.6487    5.8641929   -3372.3091    303.53583    637.62651    0.9839119       0.0465 
 1908000    6916.4998   -3979.2634    5.0652398   -3358.6554    284.17683    349.70353   0.99413157        0.046 
 1909000    6919.7309   -4000.1098    4.7923165   -3374.4661     286.6277   -16.322713    1.0144464       0.0455 
 1910000    6921.9746   -3986.3737    2.9654824   -3366.4038    284.85166   -445.68244   0.98868261        0.045 
 1911000    6924.3286   -3996.0186    4.8091395    -3316.063    311.69399   -234.17745    1.0001104       0.0445 
 1912000    6927.6509   -3991.9534    5.7785214   -3348.5791    294.35806    456.65147    1.0043286        0.044 
 1913000    6931.0528   -3939.1384     4.781916   -3270.8245    306.33195    461.31227     0.989649       0.0435 
 1914000    6934.5016   -4015.2636    3.9621301   -3379.7594    291.56325    173.35693   0.97237898        0.043 
 1915000    6937.9333   -3998.4034    5.3209699    -3360.995    291.81497   -586.08107   0.97496315       0.0425 
 1916000    6941.3632   -3986.2838    3.6252371   -3340.6007    296.41803   -926.17896    0.9584383        0.042 
 1917000    6944.7803   -3981.4276    4.4465945   -3309.7374    308.04548   -549.89479    0.9665563       0.0415 
 1918000    6948.1324   -4006.7017    4.1740035   -3366.9859    293.40974   -1558.8449   0.95416904        0.041 
 1919000    6951.5156   -4022.6235    4.3340034   -3369.0228    299.74615    452.81058   0.99318259       0.0405 
 1920000    6954.9544   -4068.6402    3.8988308    -3427.053    294.40075   -357.55833   0.97227659         0.04 
 1921000    6958.6529   -3970.1633    5.5370568   -3279.9305     316.1026    1388.1158   0.98175877       0.0395 
 1922000    6962.3667   -4000.4461    3.4238957   -3350.2139    298.61116    57.583659   0.98454389        0.039 
 1923000    6965.9578   -3998.6853    2.3928746   -3342.0123    302.06065     819.5646   0.99292664       0.0385 
 1924000    6969.6935   -3963.8611    6.4558365   -3278.2256    313.55602   -625.67612   0.96625338        0.038 
 1925000    6973.4865   -3998.6788    6.1640146   -3331.8792    304.99478   -466.85983   0.99649588       0.0375 
 1926000    6977.3023   -4021.2099    2.7271189   -3331.2914    317.25479   -147.34682    0.9911142        0.037 
 1927000    6981.0526   -4024.9944    3.5588019   -3373.4619    299.14919    122.24178    0.9828034       0.0365 
 1928000    6984.8232   -4027.3633    4.9397417   -3396.1834    289.11547   -938.08208   0.96383315        0.036 
 1929000    6988.6818   -4067.6513     5.380712   -3372.8737    318.27302    665.81512   0.98375619       0.0355 
 1930000    6992.4825   -4000.2552    3.5177129   -3342.7314    301.93418   -454.34095    1.0021395        0.035 
 1931000    6996.2603   -3984.8444    5.6521073   -3315.6559    306.33398   -156.19655   0.99108341       0.0345 
 1932000    7000.0853   -3960.7004    4.8028031   -3300.7961    302.43987   -198.48513     1.002952        0.034 
 1933000    7003.8315   -3994.7462    7.2556352   -3325.3097    305.70821     231.4356    1.0023762       0.0335 
 1934000    7007.6547   -3987.4167    7.1379703   -3287.7762    319.70678    773.52026    1.0032267        0.033 
 1935000    7011.2711   -3978.4044    6.7191491   -3332.2617    295.20184    269.18553   0.99321282       0.0325 
 1936000    7015.0329   -4011.2616     6.578663   -3336.7613    308.35854   -1009.5497    1.0033862        0.032 
 1937000    7018.8442   -4023.7894    6.3035835   -3367.2451    300.19579   -631.13725    0.9853381       0.0315 
 1938000    7022.5036   -3949.9768    6.4185161   -3283.6468     304.6605   -673.61792   0.96416615        0.031 
 1939000     7026.327   -3971.0955     5.604106   -3341.5614    288.04901   -24.833409   0.97176509       0.0305 
 1940000    7030.0795    -3975.149    5.1147466   -3313.0656    303.30184   -247.19178   0.97404449         0.03 
 1941000    7033.6121   -4027.0232    3.4928811   -3378.8101    297.64714    810.55653      1.00783       0.0295 
 1942000    7035.9429   -4020.0284    7.0029358   -3357.4387     302.6639    1025.7234    1.0048237        0.029 
 1943000    7038.8041   -4026.3823    4.6512921   -3373.8991    299.08373    20.593196   0.99063508       0.0285 
 1944000    7042.2895   -3992.1751    3.5879127   -3340.3366    299.27703    -431.6112   0.97143646        0.028 
 1945000    7045.9791   -4038.9962    4.2335242   -3371.3288    306.28668    241.77172    1.0087933       0.0275 
 1946000    7049.5518   -4000.2209    5.3736425   -3357.5098    294.23878    454.72451    0.9921628        0.027 
 1947000    7052.3993   -4042.7584      9.09387   -3390.4149    296.96821    400.68027    1.0047491       0.0265 
 1948000    7055.4649   -3952.3387    8.6613233   -3278.2238     307.2191   -216.14594    0.9887651        0.026 
 1949000    7059.1051   -4001.0475    8.3698718   -3343.4657    299.72083    618.08735   0.98775042       0.0255 
 1950000    7062.8569   -3997.4581    5.7311213   -3361.4088    290.99815   -79.382024    0.9800669        0.025 
 1951000    7066.6096   -3948.0236    7.9225598   -3282.5613    303.56552    271.91676    0.9756055       0.0245 
 1952000    7070.2233   -4031.5116    4.3216568   -3355.8922    309.91716    46.498309   0.97905087        0.024 
 1953000    7073.9226   -4026.2398    6.4679379   -3389.5887    290.93586   -19.152915   0.98743249       0.0235 
 1954000    7076.7636   -4012.8941    7.3774236   -3327.1439    313.18349   -92.261493   0.97825341        0.023 
 1955000    7079.0925   -3970.8452    4.1981202   -3336.1292    291.09039   -417.36315   0.98761352       0.0225 
 1956000    7081.4078   -4017.6734    5.5606153    -3341.918    309.40799   -821.97122   0.96999872        0.022 
 1957000    7083.9675   -3956.9463    4.9526205    -3255.475    321.56088   -602.93924   0.98332528       0.0215 
 1958000    7086.2988   -4002.8218    3.7960885   -3362.6811    293.78041    483.62406   0.99409005        0.021 
 1959000    7088.6116   -3990.8373    3.8727956    -3321.537    307.20706   -1663.1605     1.005567       0.0205 
 1960000    7091.9316   -4008.4361    3.6978635   -3381.0049     287.9582    200.24669    1.0211806         0.02 
 1961000    7095.7191   -4017.8427    4.9301725   -3375.3546    294.34054   -1523.1415   0.99301701       0.0195 
 1962000    7099.5321   -4030.7126    4.6171245   -3351.1742    311.59004    654.97881   0.99974465        0.019 
 1963000    7103.3211   -3960.0192    6.1651359    -3318.592    293.28066   -1870.7115   0.98710125       0.0185 
 1964000     7107.053   -3994.4537    3.8978746   -3325.3146    307.12107    733.55244    1.0033694        0.018 
 1965000    7110.8442   -4011.9922    5.1586272   -3371.9257     293.1171    1232.5618    1.0151579       0.0175 
 1966000    7114.6108    -4039.768     2.902595   -3376.2695    304.97647   -103.26753   0.99213867        0.017 
 1967000    7118.3782   -3994.8538    10.931461   -3346.9408    294.07449    448.50855   0.98854848       0.0165 
 1968000    7122.0616   -4022.1349    6.7532361   -3353.4562    305.59027   -290.93064    1.0024454        0.016 
 1969000    7125.7904   -3965.0694    4.9331129   -3303.3247    303.22938   -437.60359   0.98763478       0.0155 
 1970000    7129.4903   -4031.7985    3.7227897   -3389.3803    294.86573    1174.0309    1.0057574        0.015 
 1971000    7133.2395   -3971.6055    7.4958914   -3346.8091    284.98833    783.67769    1.0031938       0.0145 
 1972000     7137.024   -3998.9839    6.3339674    -3340.104    301.26005    141.76492    1.0067797        0.014 
 1973000     7140.744   -4026.8835    4.6814846   -3405.3339    284.78869   -286.03085   0.98484152       0.0135 
 1974000    7144.4712   -4010.2493     4.202446   -3337.3852    308.70015   -640.54428   0.98076964        0.013 
 1975000    7148.2725   -4012.0634     6.973561   -3357.0043     299.2008    1314.6211    1.0226074       0.0125 
 1976000    7152.0811   -4016.7277    5.2282066   -3337.5294    311.15094   -469.17172    0.9889535        0.012 
 1977000    7155.9609   -3986.3936     6.206858   -3321.1877    304.23925    260.39339   0.99632038       0.0115 
 1978000    7159.7329   -3970.1758    5.0332181   -3270.1684    320.84787    77.276922   0.99428281        0.011 
 1979000    7163.4617   -4022.3208    7.2301956   -3359.8293    302.51367    1084.4417    1.0077563       0.0105 
 1980000    7167.2351   -4034.1558    4.6985175   -3359.1777    309.44711   -196.66321    1.0036778         0.01 
 1981000    7170.5274   -4055.6448    7.3968622   -3409.8283    294.73839    1358.0675    1.0221104       0.0095 
 1982000    7172.8602   -3999.0441    6.4455169   -3335.3566    303.42805    448.29425   0.99095362        0.009 
 1983000    7176.4954   -4038.6436    5.9277595    -3400.676      291.793   -1402.0315   0.98025159       0.0085 
 1984000    7180.2903   -4054.0904    8.0853945   -3437.5216    280.91778   -1214.9633   0.98589835        0.008 
 1985000     7183.983   -4003.3987    5.9630175   -3344.4538     301.4613    155.49434   0.98020891       0.0075 
 1986000    7187.7402   -4041.4975    9.5056503   -3385.4137    298.50494    426.60378   0.99304251        0.007 
 1987000    7191.4561    -4016.229    7.3091553   -3354.9812    301.90303    -179.3926   0.98598695       0.0065 
 1988000    7195.1064   -3988.0399    4.7638465   -3318.8023    306.76674     125.7244    1.0012801        0.006 
 1989000    7198.9081   -4005.9768    6.2087747   -3360.9281    294.93239     1996.067    1.0027823       0.0055 
 1990000    7202.7878   -4011.0469    8.9835278   -3331.0508     309.7855   -972.18996   0.98991719        0.005 
 1991000    7206.5063   -3998.7203    4.6500638   -3352.2246     296.3201    9.4277522    0.9933778       0.0045 
 1992000    7210.2449   -4041.8832    6.6023085    -3409.058    289.10755    1218.4623    1.0001591        0.004 
 1993000    7213.9565   -4009.3898    7.3697024   -3327.6271    311.34618    267.47949   0.99672057       0.0035 
 1994000    7217.7446   -3955.4756    5.5263005   -3264.9614    316.23746    -86.19502   0.95596396        0.003 
 1995000    7221.4697   -3995.2363     5.124618   -3362.0621    289.95083    402.57979   0.97545872       0.0025 
 1996000    7224.5415   -3953.2279    6.6119006   -3301.9958    297.60099    405.73579   0.96939366        0.002 
 1997000     7228.231   -4013.2662    4.4536363   -3358.6664    300.15214    348.84824   0.97989257       0.0015 
 1998000     7232.026   -4012.6354    5.3316746   -3380.3827    289.42982   -939.14924   0.99583563        0.001 
 1999000    7235.8583   -3986.5517    6.6958236   -3332.7588    298.74448    120.77807     0.981749       0.0005 
 2000000    7239.6613   -4063.1928    3.3143919   -3404.9216    302.37304      198.559   0.99327378            0 
Loop time of 7239.66 on 12 procs for 2000000 steps with 1090 atoms

Performance: 23.869 ns/day, 1.006 hours/ns, 276.256 timesteps/s
93.3% CPU use with 12 MPI tasks x 1 OpenMP threads

MPI task timing breakdown:
Section |  min time  |  avg time  |  max time  |%varavg| %total
---------------------------------------------------------------
Pair    | 2736.2     | 2990.7     | 3218.1     | 240.2 | 41.31
Bond    | 3.5925     | 5.7826     | 8.1799     |  59.3 |  0.08
Kspace  | 1884.3     | 2117       | 2375       | 290.0 | 29.24
Neigh   | 216.88     | 217.4      | 217.79     |   2.2 |  3.00
Comm    | 567.48     | 635.12     | 734.17     | 262.4 |  8.77
Output  | 0.18475    | 0.18876    | 0.22699    |   2.7 |  0.00
Modify  | 761.29     | 1047.9     | 1211.4     | 573.2 | 14.47
Other   |            | 225.6      |            |       |  3.12

Nlocal:        90.8333 ave          98 max          78 min
Histogram: 1 0 0 0 1 3 2 0 3 2
Nghost:        3797.08 ave        3883 max        3731 min
Histogram: 3 1 0 2 0 2 1 1 1 1
Neighs:        32438.1 ave       35537 max       27061 min
Histogram: 1 0 0 0 2 1 2 4 0 2

Total # of neighbors = 389257
Ave neighs/atom = 357.11651
Ave special neighs/atom = 2.0587156
Neighbor list builds = 84242
Dangerous builds = 0

write_data data.*.lmp
System init for write_data ...
PPPM initialization ...
  using 12-bit tables for long-range coulomb (src/lammps/src/kspace.cpp:339)
  G vector (1/distance) = 0.30758646
  grid = 20 20 20
  stencil order = 5
  estimated absolute RMS force accuracy = 0.002595432
  estimated relative force accuracy = 7.8160663e-06
  using double precision FFTW3
  3d grid and FFT values/proc = 4046 800
Neighbor list info ...
  update every 1 steps, delay 10 steps, check yes
  max neighbors/atom: 2000, page size: 100000
  master list distance cutoff = 12
  ghost atom cutoff = 12
  binsize = 6, bins = 4 4 4
  3 neighbor lists, perpetual/occasional/extra = 3 0 0
  (1) pair lj/cut/coul/long, perpetual, skip from (3)
      attributes: half, newton on
      pair build: skip
      stencil: none
      bin: none
  (2) pair lj/cut/coul/long/soft, perpetual, skip from (3)
      attributes: half, newton on
      pair build: skip
      stencil: none
      bin: none
  (3) neighbor class addition, perpetual
      attributes: half, newton on
      pair build: half/bin/newton
      stencil: half/bin/3d/newton
      bin: standard
Total wall time: 2:13:48
