LAMMPS (29 Oct 2020)
OMP_NUM_THREADS environment is not set. Defaulting to 1 thread. (src/lammps/src/comm.cpp:94)
  using 1 OpenMP thread(s) per MPI task
# created by fftool

units real
boundary p p p

atom_style full
bond_style harmonic
angle_style harmonic
special_bonds lj/coul 0.0 0.0 0.5

read_data data.0.lmp
Reading data file ...
  orthogonal box = (-13.443762 -13.443762 -13.443762) to (13.443762 13.443762 13.443762)
  2 by 2 by 3 MPI processor grid
  reading atoms ...
  1089 atoms
  scanning bonds ...
  1 = max bonds/atom
  scanning angles ...
  28 = max angles/atom
  reading bonds ...
  728 bonds
  reading angles ...
  388 angles
Finding 1-2 1-3 1-4 neighbors ...
  special bond factors lj:    0        0        0.5     
  special bond factors coul:  0        0        0.5     
     8 = max # of 1-2 neighbors
     7 = max # of 1-3 neighbors
     7 = max # of 1-4 neighbors
     8 = max # of special neighbors
  special bonds CPU = 0.001 seconds
  read_data CPU = 0.016 seconds
# read_restart restart.*.lmp
# reset_timestep 0

pair_style hybrid lj/cut/coul/long 10.0 10.0 lj/cut/coul/long/soft 1 0.5 10.0 10.0 10.0
pair_modify tail yes
kspace_style pppm 1.0e-4

pair_coeff    1    1  lj/cut/coul/long    0.0660   3.5000  # C-CF C-CF
pair_coeff    1    2  lj/cut/coul/long    0.0445   2.9580  # C-CF H-D
pair_coeff    1    3  lj/cut/coul/long    0.0591   3.2133  # C-CF FD-
pair_coeff    1    4  lj/cut/coul/long    0.0000   1.8708  # C-CF Hw
pair_coeff    1    5  lj/cut/coul/long    0.1013   3.3286  # C-CF Ow
pair_coeff    2    2  lj/cut/coul/long    0.0300   2.5000  # H-D H-D
pair_coeff    2    3  lj/cut/coul/long    0.0399   2.7157  # H-D FD-
pair_coeff    2    4  lj/cut/coul/long/soft    0.0000   1.5811  1.0  # H-D Hw
pair_coeff    2    5  lj/cut/coul/long/soft    0.0683   2.8131  1.0  # H-D Ow
pair_coeff    3    3  lj/cut/coul/long    0.0530   2.9500  # FD- FD-
pair_coeff    3    4  lj/cut/coul/long/soft    0.0000   1.7176  0.0  # FD- Hw
pair_coeff    3    5  lj/cut/coul/long/soft    0.0908   3.0559  0.0  # FD- Ow
pair_coeff    4    4  lj/cut/coul/long    0.0000   1.0000  # Hw Hw
pair_coeff    4    5  lj/cut/coul/long    0.0000   1.7792  # Hw Ow
pair_coeff    5    5  lj/cut/coul/long    0.1554   3.1655  # Ow Ow

variable TK equal 300.0
variable PBAR equal 1.0

neighbor 2.0 bin

timestep 1.0

velocity all create ${TK} 12345
velocity all create 300 12345

fix SHAKE all shake 0.0001 20 0 b 3 a 4
       0 = # of size 2 clusters
       0 = # of size 3 clusters
       0 = # of size 4 clusters
     360 = # of frozen angles
  find clusters CPU = 0.001 seconds

fix NPT all npt temp ${TK} ${TK} 100 iso ${PBAR} ${PBAR} 500
fix NPT all npt temp 300 ${TK} 100 iso ${PBAR} ${PBAR} 500
fix NPT all npt temp 300 300 100 iso ${PBAR} ${PBAR} 500
fix NPT all npt temp 300 300 100 iso 1 ${PBAR} 500
fix NPT all npt temp 300 300 100 iso 1 1 500

thermo_style custom step etotal ke pe evdwl ecoul elong temp press density
thermo 1000

run 200000
PPPM initialization ...
  using 12-bit tables for long-range coulomb (src/lammps/src/kspace.cpp:339)
  G vector (1/distance) = 0.27021276
  grid = 15 15 15
  stencil order = 5
  estimated absolute RMS force accuracy = 0.016910392
  estimated relative force accuracy = 5.0925143e-05
  using double precision FFTW3
  3d grid and FFT values/proc = 2352 450
Neighbor list info ...
  update every 1 steps, delay 10 steps, check yes
  max neighbors/atom: 2000, page size: 100000
  master list distance cutoff = 12
  ghost atom cutoff = 12
  binsize = 6, bins = 5 5 5
  3 neighbor lists, perpetual/occasional/extra = 3 0 0
  (1) pair lj/cut/coul/long, perpetual, skip from (3)
      attributes: half, newton on
      pair build: skip
      stencil: none
      bin: none
  (2) pair lj/cut/coul/long/soft, perpetual, skip from (3)
      attributes: half, newton on
      pair build: skip
      stencil: none
      bin: none
  (3) neighbor class addition, perpetual
      attributes: half, newton on
      pair build: half/bin/newton
      stencil: half/bin/3d/newton
      bin: standard
Per MPI rank memory allocation (min/avg/max) = 16.37 | 16.38 | 16.39 Mbytes
Step TotEng KinEng PotEng E_vdwl E_coul E_long Temp Press Density 
       0    798.08888     972.9364   -174.84752    -201.6326    19449.757    -19423.16    448.35165    1094.5342   0.56189244 
    1000   -3135.9243    629.54322   -3765.4676    732.54113     15141.62   -19640.497    290.10811   -234.59752   0.81975524 
    2000   -3333.4048    628.81546   -3962.2203    771.57676    14914.189   -19648.873    289.77274   -306.28703   0.92761017 
    3000   -3309.7195    677.89703   -3987.6166    757.99659    14902.361   -19649.323    312.39067     383.0691    1.0082825 
    4000   -3314.5067    641.13741   -3955.6441    769.70713    14921.613   -19647.838    295.45098    510.27803    1.0031117 
    5000   -3371.0779    621.77548   -3992.8534    790.65314    14864.613   -19649.217    286.52855    954.94335    1.0087566 
    6000   -3353.7143    662.53154   -4016.2459    744.67602    14889.993     -19652.3    305.30989   -422.11945   0.99469738 
    7000   -3360.1226    638.50387   -3998.6265    739.96323     14908.61   -19648.408    294.23739   -397.77334    1.0003771 
    8000   -3350.5189    659.78194   -4010.3009    763.57322    14874.976   -19650.722    304.04281    58.154192    1.0015389 
    9000    -3396.809    626.60232   -4023.4113    776.04899    14849.476    -19650.05    288.75287    263.83864    1.0055783 
   10000   -3394.4848    642.63639   -4037.1212     711.4545    14901.365   -19651.143    296.14175    -1267.145    1.0016176 
   11000   -3297.1389    686.72595   -3983.8649    753.45058     14907.57   -19646.446    316.45924    441.31675    1.0198802 
   12000   -3411.7157    634.98327    -4046.699    757.47342    14841.968   -19647.665    292.61501   -70.867985    1.0182182 
   13000   -3374.9645    634.51906   -4009.4836    715.92455    14921.027   -19648.011    292.40109   -665.68165    1.0105767 
   14000   -3438.3513    638.93389   -4077.2852    724.17831    14845.131   -19648.377    294.43555   -1171.5416    1.0106067 
   15000   -3365.0228    644.87938   -4009.9021    827.30298    14811.105   -19649.786    297.17537     1095.495    1.0020191 
   16000   -3365.6605    640.00578   -4005.6663    733.30864    14911.539   -19651.433     294.9295   -893.58882   0.98401905 
   17000   -3412.1185     652.8766   -4064.9951    808.29086    14774.583   -19649.833    300.86067    775.16386    1.0082802 
   18000   -3413.1241    642.52146   -4055.6455    779.41048    14813.756   -19650.103    296.08878    239.37739    1.0140577 
   19000   -3392.8412    652.52618   -4045.3674    780.92671    14821.147   -19649.131    300.69919   -21.897655   0.99598314 
   20000   -3330.7426    663.82659   -3994.5692    737.44583    14915.667   -19651.054    305.90668   -465.12194    1.0017076 
   21000   -3329.3496    676.78976   -4006.1393    709.91532    14929.303   -19647.492    311.88041   -877.40985   0.99447473 
   22000   -3370.5698    636.53863   -4007.1085    773.13288    14865.407    -19649.07    293.33176    563.27108   0.99911745 
   23000   -3349.9273    656.01208   -4005.9394    756.49013    14886.996   -19651.417    302.30557    34.763751    1.0056774 
   24000   -3325.3063    672.60215   -3997.9084    760.64327    14886.531   -19647.632    309.95067   -164.43976   0.99872082 
   25000    -3358.178    677.71691   -4035.8949    755.15482    14857.343   -19650.872    312.30766    -84.92193    1.0072161 
   26000    -3347.382     672.1553   -4019.5373    750.87566    14875.682   -19648.128    309.74474   -450.18098   0.97896283 
   27000   -3373.0732    664.42954   -4037.5027    805.42361    14801.784   -19647.775    306.18454    615.21813   0.99173282 
   28000   -3405.9581    640.38635   -4046.3444    755.70742     14842.59   -19647.534    295.10488   -682.91397   0.99497801 
   29000   -3391.7825    660.70223   -4052.4848    741.10988    14850.358   -19646.019     304.4669   -335.54942    1.0151568 
   30000   -3420.3523    619.13732   -4039.4897    748.84158    14856.835   -19647.895    285.31283   -555.95656    1.0096362 
   31000   -3418.7423    636.16294   -4054.9052    743.02294    14850.469   -19651.029    293.15863   -960.36278   0.98945511 
   32000   -3298.6451    710.74972   -4009.3948    713.81064    14923.742   -19648.983    327.52995   -906.58524   0.99748877 
   33000   -3345.6779    666.60707    -4012.285    733.59753      14901.4   -19650.877    307.18799   -612.23666     1.000792 
   34000   -3398.4259    651.70407     -4050.13    728.38362    14868.157   -19648.637    300.32034   -949.57274    1.0088185 
   35000   -3335.5822    679.38748   -4014.9697    748.94256    14883.767   -19650.181     313.0775   -113.94404    1.0070104 
   36000    -3444.994    658.12175   -4103.1157    774.99324    14770.478   -19651.116    303.27776    -101.7667    1.0269793 
   37000   -3404.8312    649.64154   -4054.4727    876.87186    14716.949   -19649.753    299.36988    2649.1268    1.0394635 
   38000   -3344.8928    655.38456   -4000.2773    719.20801    14926.744   -19649.132     302.0164   -504.44754    1.0190516 
   39000   -3352.8954    643.29653   -3996.1919    725.72981    14923.677   -19647.526    296.44595   -585.78876    1.0015543 
   40000   -3369.9101    637.39998     -4007.31    746.91058    14895.384   -19651.745    293.72869    26.094236    1.0135339 
   41000   -3281.4951    648.37198    -3929.867    726.88832     14990.21   -19649.256    298.78484    122.07948    1.0101835 
   42000   -3352.4718      637.776   -3990.2478     698.8244    14953.386   -19645.083    293.90197   -323.99367    1.0349419 
   43000   -3417.1937    648.96364   -4066.1573    810.87183    14771.133   -19649.478    299.05749    954.79757    1.0252468 
   44000    -3399.018    651.38047   -4050.3985    748.86042    14846.364   -19648.669    300.17122    -128.0086    1.0188106 
   45000   -3316.4994    663.83111   -3980.3305    730.84729    14933.283   -19646.334    305.90877   -471.03351   0.99292005 
   46000   -3379.5773    634.41148   -4013.9888    726.68572    14907.788   -19650.575    292.35152   -362.34441    1.0203274 
   47000   -3299.3383    678.74581   -3978.0841    808.75365    14860.115   -19650.314     312.7818    1105.5628   0.99140817 
   48000   -3328.0267    663.94989   -3991.9766       738.84    14918.287   -19651.128     305.9635   -149.85725   0.99700805 
   49000   -3393.8602    664.10659   -4057.9668      778.728    14808.309   -19648.368    306.03571    367.98933    1.0193482 
   50000   -3327.2702    665.60161   -3992.8718    730.52205    14921.662   -19649.656    306.72465   -507.98309   0.99540583 
   51000   -3408.9553    647.78836   -4056.7436    800.11595    14792.953   -19651.622     298.5159    733.58442    1.0140836 
   52000   -3346.0292    674.59159   -4020.6208     741.7902    14885.791     -19651.2    310.86744   -253.31211    1.0140061 
   53000   -3403.6702    647.30126   -4050.9714    702.44537    14892.703   -19650.153    298.29142   -1455.3963    1.0032006 
   54000   -3402.2708    635.30832   -4037.5791    784.06045      14824.2   -19649.122     292.7648    456.18379     1.002472 
   55000   -3356.8544    658.92367   -4015.7781     763.9178    14867.309   -19649.791     303.6473    383.12741    1.0146252 
   56000   -3367.0719    647.68934   -4014.7613    795.24439    14836.387   -19650.473    298.47026    629.99251    1.0021374 
   57000    -3331.368     668.9516   -4000.3196    755.42796    14890.939   -19649.119     308.2684    197.64025    1.0086867 
   58000   -3419.3941    603.03817   -4022.4323    770.31208    14856.552   -19652.191    277.89397    193.13804    1.0014878 
   59000    -3443.906    615.62832   -4059.5343    830.66206    14753.628   -19646.219     283.6958    746.99913    0.9980024 
   60000   -3352.4508    639.91257   -3992.3633    756.76722    14897.558   -19648.528    294.88655   -351.80447   0.98469655 
   61000   -3332.3304    654.29338   -3986.6238    738.23788    14921.388   -19648.685    301.51356   -412.09881   0.97910992 
   62000   -3318.3617    659.16412   -3977.5258    743.21533    14926.246   -19649.542    303.75811   -249.54472    1.0021494 
   63000   -3311.1132    642.26966   -3953.3829    723.58338    14967.469   -19647.287    295.97275   -385.33656    1.0034619 
   64000   -3383.0314    629.93214   -4012.9636    730.04342    14904.941   -19649.613    290.28733   -969.93156    0.9878864 
   65000   -3308.2098    674.52711    -3982.737    747.85911    14913.345   -19646.694    310.83773   -165.84809   0.98293571 
   66000   -3364.2868     652.0621   -4016.3489    799.42941    14832.934    -19650.75    300.48533    917.61356    1.0108344 
   67000   -3363.9885    638.70705   -4002.6955    761.21697    14884.338   -19650.305    294.33102    635.45937    1.0355664 
   68000   -3334.0791    636.44049   -3970.5196    739.73877    14937.166   -19649.614    293.28653    68.912387    1.0182304 
   69000   -3418.4919    634.00423   -4052.4961    820.51179    14773.769    -19648.83    292.16385    747.20053   0.99997246 
   70000    -3373.947    631.42486   -4005.3719    711.02529    14931.736   -19650.858    290.97521   -1000.4585   0.98844045 
   71000   -3343.3809    681.76184   -4025.1427    710.22237    14909.644    -19648.07    314.17166   -1169.1237   0.99971979 
   72000   -3370.6387     671.8063    -4042.445    809.06517    14794.279   -19647.383    309.58392    1029.3304    1.0190096 
   73000   -3363.0344    648.99348   -4012.0279    752.87791    14883.425   -19650.369    299.07124   -86.557401    1.0109394 
   74000   -3344.0362    656.35024   -4000.3864    765.46402    14883.809   -19650.893    302.46141    811.73493    1.0251235 
   75000   -3441.0221    643.37193    -4084.394    747.00535    14815.788   -19648.971     296.4807   -687.99101    1.0152371 
   76000   -3368.2667    659.91054   -4028.1772    714.27352    14902.671   -19647.297    304.10208   -1093.9805   0.99495638 
   77000   -3358.7851    646.86982   -4005.6549    760.48103    14880.703   -19648.521    298.09261   -42.803257   0.99194822 
   78000   -3405.3542    646.26899   -4051.6232    751.04556    14847.343   -19651.631    297.81573     -366.845    1.0079396 
   79000    -3334.737    652.95347   -3987.6905    773.64001    14886.896    -19649.86     300.8961    739.14565    1.0261828 
   80000   -3364.4996    635.46853   -3999.9681    746.74747    14902.651   -19651.381    292.83863     27.34912    1.0271934 
   81000   -3336.9105    626.37349    -3963.284    718.41756    14965.831   -19649.999    288.64743   -482.82365    1.0016949 
   82000   -3294.8229    639.79024   -3934.6131    765.39251    14946.022   -19647.838    294.83018    937.00266    1.0108683 
   83000   -3353.1695    650.04806   -4003.2176    770.82681    14873.109   -19648.497    299.55722    723.14608    1.0208075 
   84000   -3401.9404    636.42544   -4038.3659     756.6727    14852.968   -19650.268     293.2796    42.460588    1.0109758 
   85000    -3367.905     640.1287   -4008.0337    734.92136    14906.233   -19651.455    294.98614     83.80666    1.0318789 
   86000   -3392.4387     646.2809   -4038.7196     806.8106     14801.83   -19649.186    297.82122    438.85782   0.99150301 
   87000   -3384.7716    651.77287   -4036.5445    813.19595    14799.513    -19650.99    300.35205    798.80286    1.0038162 
   88000   -3377.3051    657.90541   -4035.2105    821.94479    14791.328   -19650.478    303.17806    901.78308    1.0098357 
   89000   -3342.4027    670.73846   -4013.1412    804.18895    14822.309   -19644.383    309.09183    1284.3841    1.0235279 
   90000   -3420.2163    615.64957   -4035.8659    754.92363    14856.769   -19652.088    283.70559   -269.37533   0.99782546 
   91000   -3328.1675    659.51188   -3987.6793    795.80348    14860.244   -19647.865    303.91836    215.60569   0.96995114 
   92000   -3358.2213    656.90946   -4015.1307    801.52461    14825.995   -19648.965    302.71911    793.31406    1.0078421 
   93000   -3373.1305    631.19068   -4004.3212    743.90076    14898.618   -19650.669     290.8673   -244.18726   0.99882981 
   94000   -3417.4348    620.68383   -4038.1186    729.51892    14876.758   -19648.529     286.0255    -988.8428   0.99756826 
   95000   -3360.5218    637.85203   -3998.3738    720.68596    14925.393   -19650.463      293.937     14.71448    1.0286742 
   96000   -3314.0216    657.16917   -3971.1908    736.14127    14936.736   -19647.832    302.83879    254.74282    1.0241881 
   97000   -3347.2386    654.74153   -4001.9801    737.48065    14906.209   -19650.784    301.72007   -392.11361    1.0058053 
   98000   -3399.6443    645.62027   -4045.2646    805.86756    14795.989   -19650.991    297.51679    622.88014    1.0098148 
   99000   -3409.0821    632.97743   -4042.0595    764.60187    14841.751   -19652.313    291.69067   -26.842273     1.018058 
  100000   -3339.8374    658.30631   -3998.1437    761.06109    14888.636   -19652.093    303.36281   -6.0703178   0.98484226 
  101000   -3362.1186    661.94979   -4024.0684    742.99972     14878.86   -19649.336    305.04181   -563.29767   0.99156528 
  102000   -3386.5733    606.90665     -3993.48    772.90614     14877.66   -19648.487    279.67666    364.80743    1.0058843 
  103000   -3324.9554    659.76653   -3984.7219    769.15339    14889.287   -19646.675    304.03571    513.48317   0.99712208 
  104000   -3397.1866    620.62139    -4017.808     795.9375    14828.662   -19647.968    285.99672     907.0442    1.0077968 
  105000   -3382.4995    648.25877   -4030.7583    797.25655    14816.713   -19649.467    298.73267    412.87326   0.99657057 
  106000   -3333.7645    678.18678   -4011.9513    751.75647    14880.712   -19650.503    312.52419   -346.13564   0.98142904 
  107000   -3354.9009    648.70234   -4003.6033    814.22481    14828.018   -19651.832    298.93708    1326.7249    1.0109212 
  108000   -3323.7826    676.27053   -4000.0531    757.66342    14883.633    -19647.48    311.64114   -14.394857    1.0028648 
  109000   -3355.5416    654.20276   -4009.7444    784.10263     14849.23   -19649.707     301.4718    1187.0686    1.0265429 
  110000   -3380.3752    631.31939   -4011.6946    745.60134    14883.493   -19646.482    290.92661   -48.374809    1.0117319 
  111000   -3401.8334    638.94498   -4040.7784    766.96923    14836.431   -19649.555    294.44066   -354.50407   0.99264426 
  112000   -3413.5057    662.60937   -4076.1151    819.41803    14749.595   -19649.635    305.34576    659.18933    1.0062139 
  113000   -3370.1107    632.33094   -4002.4416    772.99396    14868.719   -19650.231    291.39276    515.02396    1.0190904 
  114000   -3354.0328    673.83429   -4027.8671    812.63712    14801.595   -19648.243    310.51846    985.88879     1.012164 
  115000   -3270.8582    652.33372    -3923.192    709.91663    15011.308    -19648.42     300.6105   -514.77178   0.99091535 
  116000   -3326.0255    649.26272   -3975.2882    765.32922    14904.188   -19650.521    299.19531    89.704998   0.99021519 
  117000   -3314.6976    690.48407   -4005.1817    739.31178    14898.625   -19648.293    318.19107   -706.01302   0.98073407 
  118000   -3395.3039    646.25987   -4041.5638    782.89725    14821.981   -19650.706    297.81153    469.89183    1.0183358 
  119000   -3352.8785     648.9704   -4001.8489    743.77601    14896.931   -19649.255    299.06061   -72.754473    1.0087241 
  120000    -3376.287    646.47293   -4022.7599    780.16074     14841.24   -19649.425    297.90972    677.92401    1.0343783 
  121000   -3334.2648    653.54886   -3987.8137    807.03694    14847.086   -19647.143    301.17047    1231.7405    1.0080983 
  122000   -3392.1736    659.25807   -4051.4317    790.08415    14802.976   -19648.342     303.8014    608.48434     1.015453 
  123000   -3351.3844    661.13084   -4012.5152    765.68373     14865.89   -19647.859    304.66442    455.96449    1.0141785 
  124000   -3399.7389    645.59268   -4045.3316    838.17932    14758.228   -19646.284    297.50407    1366.4127    1.0144045 
  125000   -3377.9557    642.40716   -4020.3629    764.85444     14856.98   -19648.707    296.03611    50.832713     1.008197 
  126000   -3430.9334    620.76964    -4051.703    819.17048    14776.823    -19651.21    286.06504    786.80724   0.99655482 
  127000   -3304.0337    657.36979   -3961.4035    722.09865    14961.098   -19650.383    302.93124   -617.63058   0.99265288 
  128000   -3350.4912    650.11432   -4000.6055    730.81891    14911.363   -19647.549    299.58775   -345.07238    1.0067467 
  129000   -3352.3377    659.05496   -4011.3927     801.5679    14827.902   -19648.553     303.7078    1024.8803    1.0149634 
  130000   -3331.3316    646.16758   -3977.4992    702.45572    14961.396   -19648.868      297.769   -813.36433    1.0174899 
  131000   -3378.3014    654.56592   -4032.8673    783.17916    14827.183   -19646.825    301.63915    314.88338    1.0115592 
  132000   -3294.3184    685.17163   -3979.4901    648.96238    15017.565   -19650.224    315.74297   -2184.2676   0.97657963 
  133000   -3343.5645    683.09706   -4026.6615     735.6572    14883.576     -19651.4    314.78696   -1185.4466   0.99324975 
  134000   -3362.5165    663.41639   -4025.9329    723.85251    14894.769   -19650.647    305.71765   -1275.2595   0.97595841 
  135000   -3415.5801    631.64607   -4047.2262     737.9634    14860.936   -19650.533    291.07715   -1173.4651   0.99776548 
  136000   -3387.9696    642.28653   -4030.2562    803.92941    14810.291   -19649.027    295.98052     558.5236    1.0037781 
  137000   -3306.5591    669.23431   -3975.7934    765.46865    14899.052   -19648.694    308.39869   -144.69146   0.98454859 
  138000   -3436.8724    604.66442   -4041.5368     827.0866    14774.497   -19649.223    278.64338    1039.4942    1.0040964 
  139000   -3316.7286    642.07761   -3958.8062    770.14988    14910.151   -19647.123    295.88425    586.61636    1.0084817 
  140000   -3435.4909    646.60473   -4082.0956    742.88993    14819.762   -19649.242    297.97045    -924.6196    1.0147274 
  141000   -3349.8621    665.88867   -4015.7508     824.0151    14802.572    -19649.88    306.85693    1437.0343    1.0098301 
  142000   -3389.4803    656.80813   -4046.2884     815.9995    14783.418   -19649.538    302.67241    618.52893    1.0030567 
  143000   -3353.9126    657.39556   -4011.3081    754.07514    14876.046   -19648.455    302.94312   -761.67008   0.97429771 
  144000   -3399.1395    648.34596   -4047.4854     757.3745     14842.47   -19650.302    298.77285   -290.76144    1.0002832 
  145000   -3321.4046    672.82697   -3994.2315    727.01005    14923.103   -19648.023    310.05426   -94.548607    1.0135431 
  146000   -3334.4314    646.05182   -3980.4832    718.68787    14945.962   -19650.513    297.71566   -765.92932   0.99702734 
  147000   -3354.2563    655.47531   -4009.7316    732.63749    14902.593   -19649.108    302.05822    -430.8045    1.0182956 
  148000   -3337.8871    654.61295      -3992.5    769.42856    14880.899   -19650.086    301.66082     755.7811    1.0223434 
  149000    -3376.242    641.83503   -4018.0771    774.77423    14853.885   -19649.601    295.77246    361.77483    1.0099174 
  150000   -3361.8006    636.53661   -3998.3372    794.62666    14850.839   -19648.304    293.33083    621.45504    1.0074849 
  151000   -3385.8031     660.1222   -4045.9253    787.26849    14814.229   -19650.391    304.19961    540.19133    1.0151587 
  152000   -3343.2856     669.2682   -4012.5538    753.90842    14877.678   -19648.544     308.4143   -75.500409     1.007318 
  153000   -3302.9056     655.9137   -3958.8193    727.60445    14959.349   -19649.544    302.26024   -542.06617   0.97024109 
  154000   -3364.4801    640.01767   -4004.4977    786.40365    14853.443   -19648.083    294.93498    167.89008   0.98655272 
  155000   -3381.1697    648.14661   -4029.3163    745.34994    14870.872   -19649.681    298.68099   -484.22067   0.99713629 
  156000   -3355.8323    690.06687   -4045.8991    801.03438    14796.077   -19647.031    317.99881    646.55058     1.010481 
  157000   -3358.0471    624.66039   -3982.7075    751.73555    14908.971   -19646.858    287.85799    -171.8557    1.0112796 
  158000   -3361.8345    615.05113   -3976.8857    756.69986    14910.547   -19648.063    283.42982    565.78305    1.0321741 
  159000   -3354.6895    650.23744   -4004.9269    814.77489    14825.419   -19649.058    299.64448    1870.0288    1.0362961 
  160000   -3387.3316    642.27094   -4029.6026    756.42682    14859.059    -19648.66    295.97334   -306.78395    1.0021255 
  161000   -3343.0814    653.61712   -3996.6986    800.28065    14847.812   -19647.964    301.20192    595.15208   0.99194886 
  162000   -3324.2673    657.09555   -3981.3628    792.19065    14870.232    -19648.33    302.80486    1199.9282     1.016541 
  163000   -3342.7775    679.83215   -4022.6096    727.18841    14897.208   -19650.549    313.28241   -997.06935   0.97423699 
  164000   -3379.4848    625.20354   -4004.6883    757.14884    14881.551   -19648.134    288.10828   -76.040761    0.9848039 
  165000   -3386.1281    628.34429   -4014.4724    734.93844    14895.393   -19648.215    289.55562   -464.67688   0.99198902 
  166000   -3424.9866    658.25206   -4083.2387    818.88571    14746.189   -19651.579    303.33781    614.68026    1.0066444 
  167000   -3302.9751    671.15602   -3974.1311    685.34376    14987.713   -19650.202    309.28425   -1418.9099   0.99095467 
  168000   -3327.7241    643.48556   -3971.2097     721.1792    14953.493   -19648.175    296.53306   -446.08256   0.99862443 
  169000   -3431.0038    640.85754   -4071.8613    803.41985    14771.642   -19650.096    295.32201    376.19715    1.0057209 
  170000   -3392.2951    632.96022   -4025.2553    780.55886    14838.676   -19647.453    291.68274    56.696342    1.0040923 
  171000   -3345.5847    636.41469   -3981.9994    714.60203    14949.089    -19649.18    293.27464   -1535.0279   0.96942474 
  172000   -3412.7904    624.36129   -4037.1517    797.10144    14813.176   -19649.883    287.72016    770.10845    1.0100035 
  173000   -3332.2803    635.28695   -3967.5672    704.08272    14974.011   -19650.007    292.75495   -1081.8724   0.96294601 
  174000   -3372.3767    600.06605   -3972.4427     711.3376    14958.707   -19647.835    276.52435   -963.09077   0.99238652 
  175000   -3378.6046    669.43573   -4048.0404    769.70451    14830.409   -19650.915     308.4915   -171.35864    1.0062203 
  176000   -3394.9346    634.14852   -4029.0831    693.23185    14923.391   -19648.477    292.23034   -1420.7325       1.0046 
  177000   -3411.4372    652.44563   -4063.8828    816.49405    14765.108   -19649.331    300.66207    808.65833    1.0073721 
  178000   -3366.5327    658.07457   -4024.6072    737.87074    14884.423   -19650.094    303.25602   -491.38544   0.99140371 
  179000   -3434.1251    629.75987    -4063.885      773.094    14804.889   -19647.271    290.20795   -650.98858   0.99652083 
  180000   -3383.3969    679.47789   -4062.8748    791.28905    14794.776   -19652.651    313.11917    390.13227    1.0109774 
  181000    -3388.246    636.14319   -4024.3892    823.56405    14798.147   -19650.585    293.14953    1415.4269    1.0055541 
  182000   -3408.0717    650.85109   -4058.9228    787.82137    14799.668   -19650.028    299.92727   -53.738357   0.99499849 
  183000   -3340.7676    643.08656   -3983.8542     743.8686     14917.46   -19648.747     296.3492   -242.82649   0.99184185 
  184000   -3433.1964    607.55441   -4040.7509    760.56557    14846.307    -19651.15    279.97516   -197.28739    1.0095467 
  185000   -3401.7191    644.98431   -4046.7034    753.52973    14846.192   -19648.963    297.22372    13.718959    1.0174971 
  186000    -3423.214    645.14548   -4068.3595    824.69067    14753.103   -19649.007      297.298    897.60049    1.0154011 
  187000   -3344.7412    649.84528   -3994.5864     752.1529     14901.88   -19652.455    299.46377   -316.55785    1.0016456 
  188000   -3324.6336    669.85221   -3994.4858    782.33881    14869.239   -19648.467    308.68343     344.3233   0.99889334 
  189000    -3337.352    659.23929   -3996.5913    737.23792    14910.279   -19647.745    303.79275   -427.15321   0.99251298 
  190000   -3408.1123    677.18274    -4085.295    814.76646    14747.084   -19649.094     312.0615    265.85399   0.99536771 
  191000   -3374.5792    652.43146   -4027.0106    798.72937    14819.149   -19648.559    300.65554    589.27577    1.0024913 
  192000   -3380.4072    663.81497   -4044.2222    764.97864    14837.259   -19648.504    305.90133    24.769315    1.0057958 
  193000   -3333.7718    665.59132   -3999.3631     777.8822    14869.312   -19650.441    306.71991    341.07365    1.0001753 
  194000   -3353.0683    659.14773   -4012.2161    728.41507    14904.858   -19649.309    303.75055   -526.17181    1.0020212 
  195000   -3353.3614    680.88951   -4034.2509    733.19005    14881.482   -19651.024    313.76967   -818.00122    1.0004008 
  196000   -3344.6073    652.72643   -3997.3337    746.06025    14902.023   -19648.103    300.79147    -542.4291   0.99601433 
  197000   -3361.3955    649.81715   -4011.2127    778.20383    14857.622   -19650.459    299.45081    758.15369    1.0060976 
  198000   -3375.0547    639.90978   -4014.9644    769.46044    14864.345   -19651.635    294.88526    541.36956    1.0146811 
  199000   -3340.6462    680.56676   -4021.2129    742.41536    14883.325   -19650.541    313.62094   -242.81889    1.0130778 
  200000   -3392.5132    655.59989   -4048.1131    788.37821    14810.426    -19650.31    302.11563    452.50967    1.0034285 
Loop time of 586.711 on 12 procs for 200000 steps with 1089 atoms

Performance: 29.452 ns/day, 0.815 hours/ns, 340.883 timesteps/s
93.2% CPU use with 12 MPI tasks x 1 OpenMP threads

MPI task timing breakdown:
Section |  min time  |  avg time  |  max time  |%varavg| %total
---------------------------------------------------------------
Pair    | 238        | 262.02     | 295.29     |  94.3 | 44.66
Bond    | 0.14899    | 0.30132    | 1.345      |  58.1 |  0.05
Kspace  | 123.09     | 156.93     | 180.54     | 121.8 | 26.75
Neigh   | 21.186     | 21.238     | 21.272     |   0.6 |  3.62
Comm    | 54.541     | 60.671     | 63.859     |  42.1 | 10.34
Output  | 0.01158    | 0.012031   | 0.016306   |   1.2 |  0.00
Modify  | 61.82      | 68.919     | 84.316     | 104.8 | 11.75
Other   |            | 16.61      |            |       |  2.83

Nlocal:        90.7500 ave         101 max          83 min
Histogram: 3 1 1 2 0 1 0 1 1 2
Nghost:        3759.42 ave        3809 max        3712 min
Histogram: 2 0 0 3 2 1 1 0 2 1
Neighs:        32260.6 ave       36917 max       28405 min
Histogram: 1 1 2 4 0 0 1 1 0 2

Total # of neighbors = 387127
Ave neighs/atom = 355.48852
Ave special neighs/atom = 2.0495868
Neighbor list builds = 8468
Dangerous builds = 4

reset_timestep 0

variable lambda equal ramp(0.0,1.0)
variable minusl equal 1.0-v_lambda
variable qC equal  0.48*v_lambda-0.24*(1.0-v_lambda)
variable qH equal  0.06*(1.0-v_lambda)
variable qF equal -0.12*v_lambda

fix ADAPT all adapt/fep 100000     pair lj/cut/coul/long/soft lambda 2 4*5 v_minusl     pair lj/cut/coul/long/soft lambda 3 4*5 v_lambda     atom charge 1 v_qC     atom charge 2 v_qH     atom charge 3 v_qF     after yes

thermo_style custom step etotal ke pe evdwl ecoul elong temp press density     v_lambda v_qC v_qH v_qF

variable dlambda equal  0.05
variable minusdl equal -0.05
variable dqC equal  (0.48+0.24)*v_dlambda
variable dqH equal -0.06*v_dlambda
variable dqF equal -0.12*v_dlambda

compute FEP all fep ${TK}     pair lj/cut/coul/long/soft lambda 2 4*5 v_minusdl     pair lj/cut/coul/long/soft lambda 3 4*5 v_dlambda     atom charge 1 v_dqC     atom charge 2 v_dqH     atom charge 3 v_dqF     volume yes
compute FEP all fep 300     pair lj/cut/coul/long/soft lambda 2 4*5 v_minusdl     pair lj/cut/coul/long/soft lambda 3 4*5 v_dlambda     atom charge 1 v_dqC     atom charge 2 v_dqH     atom charge 3 v_dqF     volume yes

fix FEP all ave/time 20 4000 100000 c_FEP[*] file fep01.fep

dump TRAJ all custom 20000 dump.lammpstrj id mol type element xu yu zu
dump_modify TRAJ element C H F H O

run 2000000
PPPM initialization ...
  using 12-bit tables for long-range coulomb (src/lammps/src/kspace.cpp:339)
  G vector (1/distance) = 0.26771633
  grid = 12 12 12
  stencil order = 5
  estimated absolute RMS force accuracy = 0.025848288
  estimated relative force accuracy = 7.7841351e-05
  using double precision FFTW3
  3d grid and FFT values/proc = 1859 144
FEP settings ...
  temperature = 300.000000
  tail no
  lj/cut/coul/long/soft lambda 2-2 4-5
  lj/cut/coul/long/soft lambda 3-3 4-5
  1-1 charge
  2-2 charge
  3-3 charge
Neighbor list info ...
  update every 1 steps, delay 10 steps, check yes
  max neighbors/atom: 2000, page size: 100000
  master list distance cutoff = 12
  ghost atom cutoff = 12
  binsize = 6, bins = 4 4 4
  3 neighbor lists, perpetual/occasional/extra = 3 0 0
  (1) pair lj/cut/coul/long, perpetual, skip from (3)
      attributes: half, newton on
      pair build: skip
      stencil: none
      bin: none
  (2) pair lj/cut/coul/long/soft, perpetual, skip from (3)
      attributes: half, newton on
      pair build: skip
      stencil: none
      bin: none
  (3) neighbor class addition, perpetual
      attributes: half, newton on
      pair build: half/bin/newton
      stencil: half/bin/3d/newton
      bin: standard
Per MPI rank memory allocation (min/avg/max) = 17.62 | 17.63 | 17.63 Mbytes
Step TotEng KinEng PotEng E_vdwl E_coul E_long Temp Press Density v_lambda v_qC v_qH v_qF 
       0   -3392.5233    655.59989   -4048.1232    788.37821    14629.081   -19468.975    302.11563    66.207268    1.0034285            0        -0.24         0.06           -0 
    1000   -3298.0992    657.65773    -3955.757    774.91751     14732.78   -19467.522    303.06393    866.20882    1.0039707       0.0005     -0.23964      0.05997       -6e-05 
    2000   -3304.0825    658.76893   -3962.8515    735.70601    14762.208   -19464.959      303.576    98.029186   0.99663138        0.001     -0.23928      0.05994     -0.00012 
    3000   -3329.5912    659.32926   -3988.9205    746.12697    14727.934   -19469.177    303.83421    286.44037    1.0269761       0.0015     -0.23892      0.05991     -0.00018 
    4000   -3361.4749    637.18587   -3998.6608    740.25795    14726.389   -19469.281    293.63002    116.15741    1.0199756        0.002     -0.23856      0.05988     -0.00024 
    5000   -3385.9703    658.97835   -4044.9486    739.67555    14680.259   -19468.064     303.6725   -412.62959    1.0029951       0.0025      -0.2382      0.05985      -0.0003 
    6000   -3367.7725    648.41532   -4016.1878     734.7276    14715.571   -19470.648    298.80481    -237.3813    1.0090708        0.003     -0.23784      0.05982     -0.00036 
    7000   -3332.9745    689.79386   -4022.7684    701.71188    14743.732   -19471.711      317.873   -1009.3263    1.0167102       0.0035     -0.23748      0.05979     -0.00042 
    8000   -3322.3039    684.62021   -4006.9241    740.88044    14715.977   -19466.549    315.48886   -342.56305   0.99924103        0.004     -0.23712      0.05976     -0.00048 
    9000   -3262.4987     703.3531   -3965.8518    739.04587    14761.696   -19469.597    324.12141      117.176    1.0074038       0.0045     -0.23676      0.05973     -0.00054 
   10000   -3349.5543    626.22093   -3975.7752    743.70513    14745.178    -19467.39    288.57712    118.31514    1.0060678        0.005      -0.2364       0.0597      -0.0006 
   11000   -3368.0858    639.90449   -4007.9903    780.25809    14675.538   -19468.305    294.88282    524.12695    1.0086561       0.0055     -0.23604      0.05967     -0.00066 
   12000   -3388.8391    623.09314   -4011.9322    793.55571     14659.52   -19467.991    287.13576    773.86081    1.0181442        0.006     -0.23568      0.05964     -0.00072 
   13000   -3346.7248    652.68262   -3999.4074    751.24685     14714.12   -19467.328    300.77128    367.71499    1.0240267       0.0065     -0.23532      0.05961     -0.00078 
   14000   -3379.9435     633.7428   -4013.6863    716.53588     14734.94   -19467.802    292.04337   -940.01815    1.0025797        0.007     -0.23496      0.05958     -0.00084 
   15000   -3341.9393    648.03198   -3989.9713    736.61057    14738.688   -19468.534    298.62816    -354.2517     1.003566       0.0075      -0.2346      0.05955      -0.0009 
   16000   -3295.8743    698.22461   -3994.0989    777.05737    14689.183   -19466.167    321.75809    155.46555   0.98304249        0.008     -0.23424      0.05952     -0.00096 
   17000   -3352.5236      648.982   -4001.5056    808.21278    14656.429   -19470.192    299.06595    1375.9064    1.0224533       0.0085     -0.23388      0.05949     -0.00102 
   18000   -3398.0771    622.89849   -4020.9756    722.45628    14722.493   -19469.105    287.04606   -1084.9603   0.97358475        0.009     -0.23352      0.05946     -0.00108 
   19000   -3377.3518    635.44048   -4012.7923    734.12295    14716.891   -19466.974    292.82571   -653.89814   0.98778657       0.0095     -0.23316      0.05943     -0.00114 
   20000   -3349.3146    656.94742    -4006.262    721.96503    14734.252   -19466.403     302.7366   -838.89592   0.98877193         0.01      -0.2328       0.0594      -0.0012 
   21000   -3387.7967     659.7106   -4047.5073    787.89629    14628.269   -19467.295    304.00994    361.42026    0.9953313       0.0105     -0.23244      0.05937     -0.00126 
   22000   -3410.7017    666.40399   -4077.1057    816.38344    14570.514    -19467.73    307.09441    873.00181    1.0205137        0.011     -0.23208      0.05934     -0.00132 
   23000   -3349.4382    630.53802   -3979.9762     774.1562    14710.789   -19468.503    290.56654    74.949759   0.98011913       0.0115     -0.23172      0.05931     -0.00138 
   24000   -3371.5612    657.28276   -4028.8439    789.28666    14646.957   -19467.825    302.89113    656.68044    1.0078096        0.012     -0.23136      0.05928     -0.00144 
   25000   -3322.3016     663.0331   -3985.3347     781.0117     14696.36   -19466.714    305.54102    657.92301    1.0030428       0.0125       -0.231      0.05925      -0.0015 
   26000   -3398.1571    637.52527   -4035.6824    767.29142    14657.421   -19466.476    293.78642   -381.35699   0.97604769        0.013     -0.23064      0.05922     -0.00156 
   27000   -3431.6633    643.93268   -4075.5959    802.32206     14585.78    -19468.34    296.73911    427.24335    1.0054611       0.0135     -0.23028      0.05919     -0.00162 
   28000   -3368.5102    669.38522   -4037.8955    719.17147    14707.265   -19468.869    308.46823   -1388.0127   0.98984228        0.014     -0.22992      0.05916     -0.00168 
   29000   -3388.5093    672.63138   -4061.1407    751.03379    14654.209   -19469.989    309.96413   -808.09803   0.99356829       0.0145     -0.22956      0.05913     -0.00174 
   30000   -3386.3659     650.3643   -4036.7302     712.6841    14711.663   -19466.559    299.70295   -1486.7433   0.97635924        0.015      -0.2292       0.0591      -0.0018 
   31000   -3408.2624    644.63023   -4052.8926    812.46922    14597.759    -19470.17    297.06055    501.08651    1.0070784       0.0155     -0.22884      0.05907     -0.00186 
   32000   -3348.6359    636.86084   -3985.4967    779.06443    14696.755   -19467.001    293.48024    774.49081    1.0250194        0.016     -0.22848      0.05904     -0.00192 
   33000   -3353.3088    683.03312   -4036.3419    760.07919    14668.454   -19470.184    314.75749    140.25293    1.0073732       0.0165     -0.22812      0.05901     -0.00198 
   34000   -3361.4156    665.06897   -4026.4846     824.7051    14609.708   -19468.107     306.4792    1163.1758   0.98847456        0.017     -0.22776      0.05898     -0.00204 
   35000   -3379.5931    626.08963   -4005.6827    752.39579    14701.748   -19467.855    288.51662    77.267154    1.0055645       0.0175      -0.2274      0.05895      -0.0021 
   36000    -3314.892    702.08591   -4016.9779     785.8376     14660.89   -19468.984    323.53746    371.19722     1.006044        0.018     -0.22704      0.05892     -0.00216 
   37000   -3431.5137    635.31932   -4066.8331    764.60657    14630.014   -19467.155    292.76987   -101.59545     1.022675       0.0185     -0.22668      0.05889     -0.00222 
   38000   -3375.6358    670.98077   -4046.6166    774.78552    14638.648   -19466.929    309.20349    313.85625    1.0078246        0.019     -0.22632      0.05886     -0.00228 
   39000   -3258.2529    685.84021   -3944.0931    757.44896    14757.196   -19467.811    316.05107    809.80137    1.0134923       0.0195     -0.22596      0.05883     -0.00234 
   40000   -3371.6954     637.8277   -4009.5231    729.81642    14720.927   -19466.434    293.92579   -839.81812    1.0046577         0.02      -0.2256       0.0588      -0.0024 
   41000   -3444.0541    640.96731   -4085.0214    806.06189    14568.157   -19467.779    295.37259    301.65335    1.0160929       0.0205     -0.22524      0.05877     -0.00246 
   42000   -3371.3049    611.19286   -3982.4977    786.11558     14692.56   -19467.888    281.65184     413.8671   0.98746769        0.021     -0.22488      0.05874     -0.00252 
   43000   -3389.6035    615.65599   -4005.2595    751.40818    14702.551   -19468.296    283.70855   -296.35035    1.0054447       0.0215     -0.22452      0.05871     -0.00258 
   44000   -3365.3318    665.39315    -4030.725    759.96455    14669.927   -19469.799    306.62859    219.29945    1.0139056        0.022     -0.22416      0.05868     -0.00264 
   45000   -3378.2343    652.33333   -4030.5676    835.81893    14594.528   -19467.291    300.61032    1682.3909    1.0340114       0.0225      -0.2238      0.05865      -0.0027 
   46000   -3395.2254    639.31123   -4034.5367    779.83578    14649.656   -19469.089    294.60943    360.53438   0.99518092        0.023     -0.22344      0.05862     -0.00276 
   47000   -3371.8518    670.69734   -4042.5491     783.6802    14638.012   -19467.536    309.07288   -2.1513736   0.99161806       0.0235     -0.22308      0.05859     -0.00282 
   48000   -3330.4318    682.84548   -4013.2773    728.46139    14719.344   -19467.008    314.67103   -780.74051    0.9945016        0.024     -0.22272      0.05856     -0.00288 
   49000   -3389.4873    667.63853   -4057.1258    759.29234    14647.286   -19467.629    307.66331   -548.25545    1.0049995       0.0245     -0.22236      0.05853     -0.00294 
   50000   -3352.5985    673.04258   -4025.6411    766.01199    14670.234   -19467.516    310.15362    198.43591    1.0148085        0.025       -0.222       0.0585       -0.003 
   51000   -3310.8598    655.18007   -3966.0399    757.96887    14739.889   -19467.686    301.92217    275.57554    1.0025522       0.0255     -0.22164      0.05847     -0.00306 
   52000   -3400.7143    651.57209   -4052.2864    738.38028    14673.122   -19470.075    300.25952   -285.03835    1.0260133        0.026     -0.22128      0.05844     -0.00312 
   53000   -3365.9729    655.63071   -4021.6036    818.15722    14623.189   -19467.714    302.12983    1465.1063    1.0288181       0.0265     -0.22092      0.05841     -0.00318 
   54000   -3389.5424    654.37841   -4043.9208    763.50005    14654.571    -19468.83    301.55274    201.12044    1.0029841        0.027     -0.22056      0.05838     -0.00324 
   55000   -3356.7802    656.79739   -4013.5776     768.9359    14679.557   -19469.304    302.66746    393.59482    1.0148477       0.0275      -0.2202      0.05835      -0.0033 
   56000   -3300.8303    635.37387   -3936.2042     771.8106     14751.89   -19466.596    292.79501    533.62674   0.99663997        0.028     -0.21984      0.05832     -0.00336 
   57000    -3365.918    635.45698    -4001.375    773.79941    14687.257   -19468.386    292.83331    360.09286    1.0027345       0.0285     -0.21948      0.05829     -0.00342 
   58000   -3333.7724    662.08901   -3995.8614    715.78134    14752.504   -19468.407    305.10596   -639.35935    1.0183873        0.029     -0.21912      0.05826     -0.00348 
   59000   -3385.3363    685.24177    -4070.578    790.02038    14600.336   -19467.866    315.77529    824.28413    1.0388788       0.0295     -0.21876      0.05823     -0.00354 
   60000   -3380.5031    645.35997   -4025.8631    785.19765    14652.262   -19469.996    297.39683     969.6963    1.0385506         0.03      -0.2184       0.0582      -0.0036 
   61000   -3328.4672    617.46866   -3945.9358    744.15684    14772.301   -19469.257    284.54387   -14.946696   0.99937833       0.0305     -0.21804      0.05817     -0.00366 
   62000   -3393.7407    618.15585   -4011.8966    736.89693    14712.778   -19466.347    284.86054    -638.0926    1.0055812        0.031     -0.21768      0.05814     -0.00372 
   63000   -3387.9922    674.88352   -4062.8757    781.19116    14615.957   -19465.275    311.00197     730.3154     1.030067       0.0315     -0.21732      0.05811     -0.00378 
   64000   -3427.5028    617.39143   -4044.8943    776.26167    14644.383   -19469.373    284.50828    209.57997    1.0118087        0.032     -0.21696      0.05808     -0.00384 
   65000   -3372.9859    655.64871   -4028.6346    830.58451    14603.157   -19469.151    302.13812    1451.5354    1.0221359       0.0325      -0.2166      0.05805      -0.0039 
   66000   -3400.9622    644.27566   -4045.2379    764.07695    14654.195   -19470.916    296.89716    24.712424    1.0291248        0.033     -0.21624      0.05802     -0.00396 
   67000   -3322.5211    667.88174   -3990.4028    791.73596    14681.877   -19468.979    307.77539    1672.0548    1.0362944       0.0335     -0.21588      0.05799     -0.00402 
   68000   -3408.6799    619.06427   -4027.7441    820.96643    14612.366   -19468.076    285.27916    1167.2999     1.022715        0.034     -0.21552      0.05796     -0.00408 
   69000   -3401.9792     629.2697   -4031.2489    690.70984    14740.122   -19468.118    289.98207   -1823.1471    1.0022568       0.0345     -0.21516      0.05793     -0.00414 
   70000    -3467.521    637.75026   -4105.2713    790.51409     14569.08   -19468.369     293.8901   -189.33657    1.0028313        0.035      -0.2148       0.0579      -0.0042 
   71000    -3350.928    644.79259   -3995.7206    705.64059    14762.068   -19469.043    297.13537   -1018.6075     0.999508       0.0355     -0.21444      0.05787     -0.00426 
   72000   -3348.3074    646.48688   -3994.7943    726.57421    14741.784   -19466.884    297.91614   -643.84606    1.0067726        0.036     -0.21408      0.05784     -0.00432 
   73000   -3443.9342    619.26062   -4063.1949    788.24943     14609.27    -19467.16    285.36965    429.02643    1.0409586       0.0365     -0.21372      0.05781     -0.00438 
   74000   -3355.5604    675.91447   -4031.4749     706.9751    14724.512    -19467.75    311.47706   -1256.2225   0.99334583        0.037     -0.21336      0.05778     -0.00444 
   75000   -3397.5495    647.98366   -4045.5331    770.18729    14646.506    -19466.35    298.60589   -51.430177    1.0066868       0.0375       -0.213      0.05775      -0.0045 
   76000   -3359.2488    677.49662   -4036.7455    783.66253    14643.047   -19468.719    312.20615      504.906    1.0132425        0.038     -0.21264      0.05772     -0.00456 
   77000   -3405.6391     628.5652   -4034.2043    729.02332    14699.604   -19468.764    289.65741   -758.76677    1.0061112       0.0385     -0.21228      0.05769     -0.00462 
   78000   -3343.6753    654.26242   -3997.9377    763.92769    14702.011   -19468.099    301.49929    465.49582    1.0065001        0.039     -0.21192      0.05766     -0.00468 
   79000   -3351.5819    648.53453   -4000.1164    709.62453    14755.478   -19469.911    298.85974   -1130.7051   0.98745672       0.0395     -0.21156      0.05763     -0.00474 
   80000   -3353.0437     661.0791   -4014.1228    790.59348    14658.262   -19468.875    304.64058    351.38933   0.99754123         0.04      -0.2112       0.0576      -0.0048 
   81000   -3406.8702    643.66257   -4050.5327    790.76127    14625.014   -19469.852    296.61463     222.6739    1.0162448       0.0405     -0.21084      0.05757     -0.00486 
   82000   -3393.3274    649.15049   -4042.4779    769.30963    14647.538   -19465.155     299.1436    147.20955    1.0061798        0.041     -0.21048      0.05754     -0.00492 
   83000   -3350.5857     660.9414   -4011.5271    721.36823    14726.444   -19465.637    304.57712   -902.71292    1.0026184       0.0415     -0.21012      0.05751     -0.00498 
   84000   -3362.5583    661.88305   -4024.4414    768.73354    14669.554   -19466.998    305.01105   -317.38112   0.99165798        0.042     -0.20976      0.05748     -0.00504 
   85000   -3352.7825     660.4931   -4013.2756    714.22617    14736.689   -19469.105    304.37053   -915.68492    1.0014941       0.0425      -0.2094      0.05745      -0.0051 
   86000   -3382.0292    658.37548   -4040.4047    839.63625    14582.432   -19467.056    303.39468    1565.8804    1.0127567        0.043     -0.20904      0.05742     -0.00516 
   87000   -3297.9883    684.94432   -3982.9327    781.68505    14696.457   -19468.616    315.63822    590.42983    0.9874852       0.0435     -0.20868      0.05739     -0.00522 
   88000   -3308.7386    666.31822   -3975.0568    727.11403    14758.141   -19467.745    307.05488    260.48134    1.0181578        0.044     -0.20832      0.05736     -0.00528 
   89000   -3347.3023    644.09734   -3991.3997    785.15222    14686.234   -19468.214    296.81499     169.6842   0.98473027       0.0445     -0.20796      0.05733     -0.00534 
   90000   -3359.3407    647.32131    -4006.662    766.19914    14694.496   -19470.948    298.30067    734.97648    1.0241317        0.045      -0.2076       0.0573      -0.0054 
   91000   -3424.5212    636.68185    -4061.203    841.27231    14563.533   -19469.773    293.39776    1504.0459    1.0241642       0.0455     -0.20724      0.05727     -0.00546 
   92000   -3422.6407    612.22702   -4034.8677    773.04339    14652.475   -19466.471     282.1284   -78.081239    1.0048466        0.046     -0.20688      0.05724     -0.00552 
   93000   -3383.8819    623.79678   -4007.6787    739.38744    14713.433   -19467.025    287.46002    -514.1742    1.0031018       0.0465     -0.20652      0.05721     -0.00558 
   94000   -3355.0485    658.99903   -4014.0475    708.86896     14743.18   -19468.437    303.68203   -823.06845    1.0067397        0.047     -0.20616      0.05718     -0.00564 
   95000   -3372.3973    645.07739   -4017.4747    768.88044    14675.834   -19469.725    297.26662    33.488254   0.99638063       0.0475      -0.2058      0.05715      -0.0057 
   96000   -3381.4169    666.55024   -4047.9671    769.54109    14641.417   -19468.021     307.1618   -329.35347    1.0032224        0.048     -0.20544      0.05712     -0.00576 
   97000   -3360.2314    676.65585   -4036.8873    759.32001    14667.038   -19469.182     311.8187   -263.24695     1.007816       0.0485     -0.20508      0.05709     -0.00582 
   98000     -3416.98    632.89874   -4049.8787    839.15253    14575.914   -19469.277    291.65441    1443.8187    1.0210721        0.049     -0.20472      0.05706     -0.00588 
   99000   -3355.5898    669.68303   -4025.2728    763.50972    14669.064   -19466.712    308.60547   -156.94226    1.0108977       0.0495     -0.20436      0.05703     -0.00594 
  100000    -3394.567    639.97116   -4034.5382    748.46305    14682.357     -19469.6    294.91355   -324.87546    1.0088015         0.05       -0.204        0.057       -0.006 
  101000   -3336.4115    669.21049    -4005.622    766.58797    14689.072   -19466.165    308.38771    160.93899    1.0105483       0.0505     -0.20364      0.05697     -0.00606 
  102000   -3389.8151    632.70242   -4022.5176    781.70573    14658.837   -19468.695    291.56394   -2.2358935   0.99315392        0.051     -0.20328      0.05694     -0.00612 
  103000    -3299.724      671.381    -3971.105    768.19045    14721.765   -19465.361    309.38793    411.95785   0.99765656       0.0515     -0.20292      0.05691     -0.00618 
  104000   -3337.5673    649.70113   -3987.2685    772.69001      14700.3   -19465.384    299.39734    342.23506    0.9985943        0.052     -0.20256      0.05688     -0.00624 
  105000   -3364.5435    640.88889   -4005.4324    756.08651    14703.184   -19469.123    295.33646    392.93162    1.0340136       0.0525      -0.2022      0.05685      -0.0063 
  106000   -3340.7652    688.61574   -4029.3809     741.3397     14691.51   -19467.835     317.3301    -467.0691    1.0253624        0.053     -0.20184      0.05682     -0.00636 
  107000   -3446.8183    630.21797   -4077.0362    774.36791     14614.24   -19468.657    290.41905    177.60728    1.0338312       0.0535     -0.20148      0.05679     -0.00642 
  108000   -3348.4875    623.56862   -3972.0561     741.0154    14749.985   -19469.036    287.35487     465.3493    1.0209718        0.054     -0.20112      0.05676     -0.00648 
  109000   -3371.0658     666.3794   -4037.4452    811.68398    14612.289   -19466.072    307.08307    934.53483    1.0180939       0.0545     -0.20076      0.05673     -0.00654 
  110000   -3382.8217      648.659   -4031.4807    769.77449    14661.002   -19468.392    298.91711   -75.380934   0.99726956        0.055      -0.2004       0.0567      -0.0066 
  111000   -3344.2236    672.96062   -4017.1843    768.77462    14673.806   -19465.728    310.11585   -323.60318   0.98345962       0.0555     -0.20004      0.05667     -0.00666 
  112000   -3346.5786    637.30491   -3983.8835    737.34334    14738.741   -19465.864    293.68488   -596.90701   0.99363571        0.056     -0.19968      0.05664     -0.00672 
  113000   -3323.1142    652.21779    -3975.332    729.83371    14756.543   -19467.052    300.55708   -405.03916    1.0040828       0.0565     -0.19932      0.05661     -0.00678 
  114000   -3288.5969    640.82866   -3929.4256    746.64537    14780.289   -19464.103     295.3087    41.197541   0.99863739        0.057     -0.19896      0.05658     -0.00684 
  115000   -3380.4678    642.59835   -4023.0662    740.02911    14702.607   -19469.589    296.12422   -153.80266    1.0234054       0.0575      -0.1986      0.05655      -0.0069 
  116000   -3378.8521    667.72875   -4046.5808    748.18439    14669.162   -19466.195    307.70489   -117.47782    1.0322729        0.058     -0.19824      0.05652     -0.00696 
  117000   -3390.3688    657.52106   -4047.8898    797.38427    14618.679   -19466.287    303.00095    852.19499    1.0239083       0.0585     -0.19788      0.05649     -0.00702 
  118000   -3305.5645    682.32376   -3987.8882    760.20183    14713.944   -19467.394    314.43061   -11.159431    0.9915003        0.059     -0.19752      0.05646     -0.00708 
  119000   -3392.8828    645.11408   -4037.9969    788.05665    14636.826   -19468.105    297.28352    252.68938   0.99551321       0.0595     -0.19716      0.05643     -0.00714 
  120000   -3362.3509    662.51622   -4024.8671    809.17488    14627.953   -19464.602    305.30283    884.54144    1.0000588         0.06      -0.1968       0.0564      -0.0072 
  121000   -3292.9629    671.08721   -3964.0501      724.248    14773.704   -19465.979    309.25254   -616.23903   0.99181469       0.0605     -0.19644      0.05637     -0.00726 
  122000   -3336.3622    652.53149   -3988.8937    726.93825    14745.787   -19466.642    300.70164   -402.11277    1.0096803        0.061     -0.19608      0.05634     -0.00732 
  123000   -3385.1637    647.84524   -4033.0089    749.75874    14680.188   -19465.014    298.54211   -405.06738   0.98813122       0.0615     -0.19572      0.05631     -0.00738 
  124000   -3395.6966     663.7764    -4059.473    827.61856    14577.281   -19466.891    305.88355    1116.7085     1.001496        0.062     -0.19536      0.05628     -0.00744 
  125000   -3408.9435    667.08778   -4076.0313    757.63339    14631.189    -19468.47    307.40951   -788.22673   0.98941454       0.0625       -0.195      0.05625      -0.0075 
  126000   -3371.6672    633.86742   -4005.5346    790.59414    14667.017   -19467.284     292.1008    494.51054   0.99330773        0.063     -0.19464      0.05622     -0.00756 
  127000   -3382.2787    641.93357   -4024.2123    776.01158    14662.654   -19465.402    295.81787    7.6404013   0.99070475       0.0635     -0.19428      0.05619     -0.00762 
  128000   -3366.9871    650.07492    -4017.062    745.63485    14699.522   -19465.754    299.56959   -403.60181   0.99929581        0.064     -0.19392      0.05616     -0.00768 
  129000   -3409.8832    625.05911   -4034.9423    771.70985    14657.063   -19467.577    288.04173    472.08066    1.0197977       0.0645     -0.19356      0.05613     -0.00774 
  130000   -3335.5024    657.46659    -3992.969    755.83369     14716.05   -19468.386    302.97584    79.863153    1.0131985        0.065      -0.1932       0.0561      -0.0078 
  131000   -3348.1633    672.59964    -4020.763    728.73539    14713.336   -19467.597     309.9495   -618.08563    1.0016602       0.0655     -0.19284      0.05607     -0.00786 
  132000   -3340.6026    675.34489   -4015.9475    707.65201    14740.019   -19467.445    311.21458    -1009.817   0.99612956        0.066     -0.19248      0.05604     -0.00792 
  133000    -3347.397    669.58243   -4016.9794    776.51447    14670.279   -19467.745    308.55911    264.24627    1.0020985       0.0665     -0.19212      0.05601     -0.00798 
  134000   -3434.8459    630.93663   -4065.7826    765.89034    14631.424   -19466.259    290.75022   -622.55415   0.99634395        0.067     -0.19176      0.05598     -0.00804 
  135000   -3336.5207    661.68886   -3998.2096    759.32556     14706.86   -19468.682    304.92157    -113.5898    0.9939541       0.0675      -0.1914      0.05595      -0.0081 
  136000   -3371.1154    639.47381   -4010.5892     790.5674    14662.165   -19468.105    294.68436    950.58507    1.0152594        0.068     -0.19104      0.05592     -0.00816 
  137000   -3386.4794    655.74505   -4042.2244     795.7209     14624.78   -19467.957    302.18252    662.97124    1.0109727       0.0685     -0.19068      0.05589     -0.00822 
  138000   -3331.9356    697.13731   -4029.0729    832.10133    14603.671    -19468.65    321.25703     1481.186    1.0001526        0.069     -0.19032      0.05586     -0.00828 
  139000   -3472.1418    616.06807   -4088.2099    781.56449    14595.284   -19468.544    283.89845   -71.781901    1.0079798       0.0695     -0.18996      0.05583     -0.00834 
  140000    -3405.946    629.47046   -4035.4165    760.51507    14667.168   -19467.546    290.07458   -88.759778    1.0051787         0.07      -0.1896       0.0558      -0.0084 
  141000    -3375.657    635.44118   -4011.0982    751.90318    14699.967   -19466.973    292.82603   -191.25615     1.015621       0.0705     -0.18924      0.05577     -0.00846 
  142000   -3331.5947    654.05449   -3985.6491    740.65715    14736.064   -19468.014    301.40347    225.26989    1.0187793        0.071     -0.18888      0.05574     -0.00852 
  143000   -3423.1866    645.12763   -4068.3142    803.13127    14592.112   -19466.918    297.28977    553.37024    1.0213845       0.0715     -0.18852      0.05571     -0.00858 
  144000   -3403.1706     657.4039   -4060.5745    717.98765    14684.209   -19468.969    302.94696   -933.30927    1.0163992        0.072     -0.18816      0.05568     -0.00864 
  145000    -3335.412    655.21965   -3990.6317     748.9511    14723.327   -19467.739     301.9404   -622.04819   0.98025164       0.0725      -0.1878      0.05565      -0.0087 
  146000   -3337.1699    655.49731   -3992.6672    743.99423    14726.014    -19468.74    302.06836   -64.480153    1.0145848        0.073     -0.18744      0.05562     -0.00876 
  147000   -3375.4268    627.89497   -4003.3218    742.34451    14716.554   -19466.164    289.34856   -550.54272    1.0002671       0.0735     -0.18708      0.05559     -0.00882 
  148000   -3423.1073    639.70605   -4062.8133    797.12777    14603.131   -19467.373    294.79138    371.15807    1.0045731        0.074     -0.18672      0.05556     -0.00888 
  149000   -3344.6447    626.85656   -3971.5012    694.26345    14797.521    -19467.26    288.87004   -1301.7185   0.98526482       0.0745     -0.18636      0.05553     -0.00894 
  150000   -3364.4851    657.20435   -4021.6894    763.30442    14680.136   -19469.067      302.855   -57.467863    1.0001802        0.075       -0.186       0.0555       -0.009 
  151000   -3385.0235    670.45044   -4055.4739    778.49751    14628.123   -19467.607    308.95911    355.05095    1.0197989       0.0755     -0.18564      0.05547     -0.00906 
  152000    -3364.225    623.89201    -3988.117     767.1876    14706.481    -19465.87     287.5039    554.53477    1.0177231        0.076     -0.18528      0.05544     -0.00912 
  153000   -3370.8753    677.03474     -4047.91    787.43358    14630.626   -19469.684     311.9933    568.56906    1.0216018       0.0765     -0.18492      0.05541     -0.00918 
  154000   -3387.7196    604.41477   -3992.1344    741.44761    14728.943   -19468.217    278.52834   -179.42921    1.0190007        0.077     -0.18456      0.05538     -0.00924 
  155000   -3391.0427    632.41616   -4023.4589    757.24131    14680.877   -19466.151    291.43203   -423.95426   0.98925383       0.0775      -0.1842      0.05535      -0.0093 
  156000   -3350.5491     653.7185   -4004.2676    699.51515    14758.704   -19467.628    301.24864   -1099.8757   0.98608149        0.078     -0.18384      0.05532     -0.00936 
  157000   -3334.2476    629.59996   -3963.8475    736.29756    14762.906   -19468.205    290.13426   -613.37687   0.97942217       0.0785     -0.18348      0.05529     -0.00942 
  158000   -3326.3237    650.49658   -3976.8203    779.25496    14705.385   -19465.188    299.76391    670.66822    1.0032983        0.079     -0.18312      0.05526     -0.00948 
  159000   -3385.6212    663.28401   -4048.9052    736.23106    14678.794   -19468.569    305.65665   -808.37269   0.99218353       0.0795     -0.18276      0.05523     -0.00954 
  160000   -3362.2645    631.34223   -3993.6068    773.66136    14693.908   -19466.023    290.93713    120.23638    1.0031356         0.08      -0.1824       0.0552      -0.0096 
  161000   -3326.9109    637.84464   -3964.7556    723.87677    14772.849   -19466.863     293.9336   -307.70022   0.99858554       0.0805     -0.18204      0.05517     -0.00966 
  162000   -3371.4453    679.23494   -4050.6802    784.95934    14629.136   -19469.757    313.00721    199.49965   0.99452895        0.081     -0.18168      0.05514     -0.00972 
  163000   -3307.5676    673.33278   -3980.9004    764.94634     14716.79   -19467.333    310.28735    271.38749   0.98953059       0.0815     -0.18132      0.05511     -0.00978 
  164000   -3358.4894    665.12128   -4023.6107    774.29939    14665.218   -19467.799     306.5033     278.9251    1.0098791        0.082     -0.18096      0.05508     -0.00984 
  165000   -3421.0089    606.57179   -4027.5806    717.78635    14718.227     -19468.3    279.52234   -1110.3793   0.99041332       0.0825      -0.1806      0.05505      -0.0099 
  166000   -3299.8568    678.10192   -3977.9588    713.27913    14771.066   -19467.823    312.48508   -1056.5125   0.97927022        0.083     -0.18024      0.05502     -0.00996 
  167000   -3374.0158    631.12785   -4005.1437    726.99676    14730.637   -19466.893    290.83834   -203.53135    1.0161116       0.0835     -0.17988      0.05499     -0.01002 
  168000   -3389.0253    656.75544   -4045.7807    758.55661    14656.175   -19464.458    302.64813      -215.33    1.0028399        0.084     -0.17952      0.05496     -0.01008 
  169000   -3366.0152    659.67407   -4025.6893    741.13472    14696.753   -19467.431     303.9931   -490.74873    1.0188604       0.0845     -0.17916      0.05493     -0.01014 
  170000   -3396.2384    666.46651   -4062.7049    806.69798    14596.377    -19468.85    307.12322    821.88554    1.0192089        0.085      -0.1788       0.0549      -0.0102 
  171000   -3294.0183    652.69571    -3946.714    739.80488    14772.181   -19463.758    300.77731   -446.40144   0.97657409       0.0855     -0.17844      0.05487     -0.01026 
  172000   -3376.8646    676.60472   -4053.4693    777.75135    14634.448   -19470.207    311.79514    645.45555    1.0342952        0.086     -0.17808      0.05484     -0.01032 
  173000    -3382.699    643.85637   -4026.5554    800.55105    14637.576   -19468.702    296.70394    1230.3106    1.0390968       0.0865     -0.17772      0.05481     -0.01038 
  174000   -3370.0188    650.75396   -4020.7727    790.79195    14647.494   -19464.945    299.88251    445.83757   0.99440674        0.087     -0.17736      0.05478     -0.01044 
  175000   -3394.0429    648.56996   -4042.6129     763.4564    14654.098   -19466.869    298.87607   -864.80386    0.9745904       0.0875       -0.177      0.05475      -0.0105 
  176000   -3348.9564    679.68094   -4028.6373    752.55466    14680.258   -19467.792    313.21274    -279.0765    1.0017963        0.088     -0.17664      0.05472     -0.01056 
  177000     -3300.96    666.26045   -3967.2204    711.33052    14779.157   -19463.826    307.02826   -963.92955   0.98488219       0.0885     -0.17628      0.05469     -0.01062 
  178000    -3314.773     675.3568   -3990.1298    768.75457    14703.588   -19468.801    311.22007    517.75977   0.99102907        0.089     -0.17592      0.05466     -0.01068 
  179000   -3349.3234    652.99789   -4002.3213    807.30719    14652.674   -19467.512    300.91657    1296.2791    1.0166008       0.0895     -0.17556      0.05463     -0.01074 
  180000   -3386.9008    662.59724   -4049.4981    760.27488    14654.403   -19468.797    305.34017    44.651711    1.0228066         0.09      -0.1752       0.0546      -0.0108 
  181000   -3381.3585    636.86777   -4018.2262    768.12333    14676.631   -19468.495    293.48343   -39.005462   0.99113737       0.0905     -0.17484      0.05457     -0.01086 
  182000   -3391.7294    636.97548   -4028.7049    766.83737    14665.485   -19467.481    293.53307    254.83531    1.0157534        0.091     -0.17448      0.05454     -0.01092 
  183000   -3344.0487    639.50918   -3983.5579    749.78073    14731.382   -19467.753    294.70065   -71.569247   0.99566528       0.0915     -0.17412      0.05451     -0.01098 
  184000   -3364.8759    645.00917   -4009.8851    808.28266    14644.278   -19467.613    297.23518      993.411    1.0135071        0.092     -0.17376      0.05448     -0.01104 
  185000   -3363.9254    644.42436   -4008.3498    735.37084    14716.397   -19462.797    296.96569   -523.69852    1.0031253       0.0925      -0.1734      0.05445      -0.0111 
  186000   -3378.0196     634.4786   -4012.4982    760.74128     14685.71    -19464.65    292.38245   -167.18239    1.0045533        0.093     -0.17304      0.05442     -0.01116 
  187000   -3293.6579    684.91267   -3978.5706    722.76261    14761.402   -19467.142    315.62364   -604.37822    0.9954484       0.0935     -0.17268      0.05439     -0.01122 
  188000   -3381.2104    641.89648   -4023.1068    810.34159    14627.249   -19465.782    295.80078    757.04899   0.99295582        0.094     -0.17232      0.05436     -0.01128 
  189000   -3349.7713    626.74745   -3976.5188    785.26121    14702.294    -19467.84    288.81975    661.73751    1.0059472       0.0945     -0.17196      0.05433     -0.01134 
  190000   -3351.3888    632.75376   -3984.1425    748.26676    14732.004   -19469.221     291.5876    388.49741     1.019604        0.095      -0.1716       0.0543      -0.0114 
  191000   -3381.6646    635.52167   -4017.1862    722.13303    14723.143   -19466.255    292.86312   -734.11518    1.0048877       0.0955     -0.17124      0.05427     -0.01146 
  192000   -3352.6478    641.64612   -3994.2939    682.27269    14786.899   -19467.474    295.68541   -1096.3167    1.0136566        0.096     -0.17088      0.05424     -0.01152 
  193000   -3336.1421    656.15751   -3992.2996    779.57635    14690.488   -19467.308    302.37259     808.7676    1.0260566       0.0965     -0.17052      0.05421     -0.01158 
  194000   -3379.7001    644.04439   -4023.7445    765.67877    14669.636   -19463.408    296.79059   -13.276297    1.0151943        0.097     -0.17016      0.05418     -0.01164 
  195000   -3402.3097    645.16095   -4047.4707    755.79093    14658.502   -19466.873    297.30512   -465.44981    0.9930744       0.0975      -0.1698      0.05415      -0.0117 
  196000   -3382.2754     676.0406    -4058.316    796.49704    14606.277   -19466.746    311.53518    37.757168   0.99646871        0.098     -0.16944      0.05412     -0.01176 
  197000   -3335.0504    652.16439   -3987.2148    739.94061    14734.935   -19466.265    300.53247    387.19544    1.0334765       0.0985     -0.16908      0.05409     -0.01182 
  198000   -3285.7783    667.77146   -3953.5498    721.59216     14787.87   -19467.088    307.72457   -86.727284    1.0133923        0.099     -0.16872      0.05406     -0.01188 
  199000    -3370.873    648.73576   -4019.6087    696.48144    14744.459   -19465.775    298.95248     -1360.86    1.0055825       0.0995     -0.16836      0.05403     -0.01194 
  200000   -3402.2725    666.55619   -4068.8286    764.49286    14632.193   -19470.207    307.16454   -397.06271   0.98923075          0.1       -0.168        0.054       -0.012 
  201000   -3395.6429    657.63172   -4053.2746    768.62969    14641.177   -19466.515    303.05194   -68.131575    1.0103796       0.1005     -0.16764      0.05397     -0.01206 
  202000   -3379.3941     630.9802   -4010.3743    799.59253    14645.556   -19462.581     290.7703     809.0541    1.0049216        0.101     -0.16728      0.05394     -0.01212 
  203000   -3359.1905    668.10027   -4027.2908    782.32373    14650.068   -19467.008    307.87609   -48.995691   0.99926039       0.1015     -0.16692      0.05391     -0.01218 
  204000   -3346.6475     643.8724   -3990.5199    773.01701    14698.487   -19466.575    296.71133     522.2151    1.0092188        0.102     -0.16656      0.05388     -0.01224 
  205000   -3393.4901    646.34162   -4039.8318    820.44271    14600.184   -19466.035     297.8492    1050.9196    1.0056764       0.1025      -0.1662      0.05385      -0.0123 
  206000   -3328.7105    655.60613   -3984.3166    798.14363    14675.184   -19464.027     302.1185    812.79287    1.0025211        0.103     -0.16584      0.05382     -0.01236 
  207000   -3316.6014     680.4402   -3997.0416     748.0338    14718.973   -19467.607    313.56262    39.449012    1.0026625       0.1035     -0.16548      0.05379     -0.01242 
  208000   -3396.7183    638.50522   -4035.2236    740.64723    14686.887   -19466.162    294.23801   -257.06709    1.0135057        0.104     -0.16512      0.05376     -0.01248 
  209000   -3344.2847    660.88015   -4005.1648    731.77037    14723.493   -19465.923     304.5489   -362.08382    1.0108642       0.1045     -0.16476      0.05373     -0.01254 
  210000   -3362.8742    654.30988   -4017.1841    763.66548    14683.878   -19468.306    301.52116    261.53727    0.9961657        0.105      -0.1644       0.0537      -0.0126 
  211000   -3393.7667    653.57185   -4047.3385    724.12579    14689.774   -19466.373    301.18106   -869.88205    1.0048298       0.1055     -0.16404      0.05367     -0.01266 
  212000   -3352.1865    655.47182   -4007.6583    734.49312    14717.648   -19467.073    302.05661   -236.89131    1.0026672        0.106     -0.16368      0.05364     -0.01272 
  213000    -3370.357    666.40488   -4036.7619    725.39298    14695.561   -19463.952    307.09482   -943.98774   0.99991599       0.1065     -0.16332      0.05361     -0.01278 
  214000   -3367.7445    667.44287   -4035.1873    779.14626    14647.114   -19467.207    307.57315     546.9821    1.0303326        0.107     -0.16296      0.05358     -0.01284 
  215000   -3368.4014    672.97014   -4041.3715    750.32355    14667.166   -19464.668    310.12024    -384.7652   0.99961562       0.1075      -0.1626      0.05355      -0.0129 
  216000   -3348.6829    649.22784   -3997.9107    840.04391    14622.371   -19466.533    299.17924    1465.7528    1.0009658        0.108     -0.16224      0.05352     -0.01296 
  217000   -3336.3332    681.92117   -4018.2544    735.36029     14704.77   -19464.932    314.24508   -941.15425   0.98549365       0.1085     -0.16188      0.05349     -0.01302 
  218000    -3289.592    696.34101    -3985.933    708.09221    14761.202   -19461.836    320.89008   -723.34101    1.0077174        0.109     -0.16152      0.05346     -0.01308 
  219000   -3357.5355    659.57218   -4017.1077    735.07799    14710.393   -19465.735    303.94615   -596.90959    1.0077763       0.1095     -0.16116      0.05343     -0.01314 
  220000   -3372.2952    636.54293   -4008.8381    722.91605    14732.607   -19467.194    293.33374   -751.65926   0.98865029         0.11      -0.1608       0.0534      -0.0132 
  221000   -3388.0928    614.38455   -4002.4774    793.46184    14669.788   -19469.212    283.12264    1024.3955    1.0112591       0.1105     -0.16044      0.05337     -0.01326 
  222000   -3369.6931     648.1022   -4017.7953    741.79767    14701.771   -19467.192    298.66052   -613.68961    1.0032658        0.111     -0.16008      0.05334     -0.01332 
  223000   -3422.3427     652.1686   -4074.5113    805.04488    14583.907   -19469.286    300.53441     795.0057    1.0274863       0.1115     -0.15972      0.05331     -0.01338 
  224000   -3300.2807     685.3612   -3985.6419    767.43809    14708.509   -19467.147    315.83033    483.84898    1.0003674        0.112     -0.15936      0.05328     -0.01344 
  225000   -3347.0781    676.65582   -4023.7339    810.03533    14624.925    -19464.48    311.81869    1004.1546    1.0090463       0.1125       -0.159      0.05325      -0.0135 
  226000   -3353.0489     636.4366   -3989.4855    803.77321    14667.345    -19464.81    293.28474    819.28197    0.9962449        0.113     -0.15864      0.05322     -0.01356 
  227000    -3330.239    673.16079   -4003.3998    770.55568    14687.002   -19465.448     310.2081    628.99399     1.005763       0.1135     -0.15828      0.05319     -0.01362 
  228000     -3352.58    666.02048   -4018.6004    761.70583    14679.945   -19465.464    306.91768   -21.047059    1.0086476        0.114     -0.15792      0.05316     -0.01368 
  229000   -3370.8262    635.85876    -4006.685    729.01769    14722.657   -19463.262    293.01846   -844.54388   0.99599296       0.1145     -0.15756      0.05313     -0.01374 
  230000   -3361.4788    680.30058   -4041.7794    834.71877    14587.598   -19466.805    313.49828    1449.4477    1.0182698        0.115      -0.1572       0.0531      -0.0138 
  231000   -3387.8555    622.96267   -4010.8182    756.45572    14696.162   -19468.054    287.07564   -196.78433   0.99784357       0.1155     -0.15684      0.05307     -0.01386 
  232000   -3355.0477    644.42083   -3999.4685    732.78771    14726.489   -19462.967    296.96406    -1051.793   0.97692081        0.116     -0.15648      0.05304     -0.01392 
  233000   -3365.1304    652.23509   -4017.3655    797.73474      14646.7   -19465.768    300.56505    665.77141    1.0030738       0.1165     -0.15612      0.05301     -0.01398 
  234000   -3357.9868    646.12013    -4004.107    694.34799    14762.492   -19465.641    297.74714   -1512.0156   0.99299744        0.117     -0.15576      0.05298     -0.01404 
  235000   -3403.4574    657.93935   -4061.3968     761.7068    14640.942    -19468.34    303.19371   -191.42849    1.0189754       0.1175      -0.1554      0.05295      -0.0141 
  236000   -3426.2198    619.56153   -4045.7813    761.50181    14658.417   -19468.012    285.50832   -31.732137    1.0210757        0.118     -0.15504      0.05292     -0.01416 
  237000   -3352.3308    629.10953   -3981.4404      747.479    14731.922   -19463.202    289.90825    108.24402    1.0088384       0.1185     -0.15468      0.05289     -0.01422 
  238000   -3356.5364    652.43661    -4008.973    724.72182     14724.74   -19462.877    300.65792   -1193.4228   0.99146422        0.119     -0.15432      0.05286     -0.01428 
  239000   -3339.7211    645.52417   -3985.2453    716.40883    14758.563   -19463.804     297.4725   -714.91322    0.9938637       0.1195     -0.15396      0.05283     -0.01434 
  240000   -3346.0039    675.50172   -4021.5056    760.98691    14680.924   -19466.077    311.28685   -59.518782   0.99542112         0.12      -0.1536       0.0528      -0.0144 
  241000   -3304.1874    680.47542   -3984.6628    694.09669    14785.076   -19468.025    313.57885   -895.25318    1.0079876       0.1205     -0.15324      0.05277     -0.01446 
  242000    -3364.212    673.10546   -4037.3174    765.24403    14660.888   -19468.486     310.1826     214.8133    1.0137498        0.121     -0.15288      0.05274     -0.01452 
  243000   -3434.7545    630.32165   -4065.0762    739.73539    14661.512   -19469.713    290.46683   -858.95286    1.0264364       0.1215     -0.15252      0.05271     -0.01458 
  244000   -3375.0143    643.07753   -4018.0918    761.18242    14685.695   -19467.455    296.34504    5.3366778    1.0047502        0.122     -0.15216      0.05268     -0.01464 
  245000   -3340.3574    643.37354   -3983.7309    741.06484    14735.889   -19463.802    296.48144   -376.89084   0.97623616       0.1225      -0.1518      0.05265      -0.0147 
  246000   -3426.3697    626.86394   -4053.2336    754.03881     14656.37   -19467.966    288.87343   -126.69241    1.0330783        0.123     -0.15144      0.05262     -0.01476 
  247000   -3324.8821    672.39625   -3997.2783     729.5884    14736.432   -19465.698    309.85578   -312.94347    1.0121672       0.1235     -0.15108      0.05259     -0.01482 
  248000   -3374.8629    643.92583   -4018.7887    769.63065    14671.537    -19464.94    296.73595    577.29032    1.0304838        0.124     -0.15072      0.05256     -0.01488 
  249000   -3422.7342    659.94091   -4082.6751    793.51518    14587.982   -19468.213    304.11607    46.528985   0.99759493       0.1245     -0.15036      0.05253     -0.01494 
  250000   -3433.6653    644.19191   -4077.8572    763.71251    14618.363   -19464.678    296.85857   -552.51125   0.99098603        0.125        -0.15       0.0525       -0.015 
  251000   -3427.1256    629.02927   -4056.1548    796.24915    14610.375   -19467.412    289.87127    336.50484    1.0057917       0.1255     -0.14964      0.05247     -0.01506 
  252000   -3394.6663    607.36925   -4002.0356    743.81063    14717.036   -19466.148    279.88983    102.35457     1.023114        0.126     -0.14928      0.05244     -0.01512 
  253000   -3367.9264    642.15126   -4010.0776    738.79056    14717.169   -19469.744    295.91819   -483.88748   0.99665828       0.1265     -0.14892      0.05241     -0.01518 
  254000    -3463.164    626.02855   -4089.1925    782.02559    14592.149   -19466.665    288.48847   -170.30383    1.0163299        0.127     -0.14856      0.05238     -0.01524 
  255000   -3386.4106    659.99376   -4046.4044    753.62791    14665.207   -19467.958    304.14043    61.023183    1.0248721       0.1275      -0.1482      0.05235      -0.0153 
  256000   -3393.4305     665.5819   -4059.0124    775.42602    14625.103   -19464.295    306.71557     526.5717    1.0365167        0.128     -0.14784      0.05232     -0.01536 
  257000   -3377.8786    630.01528   -4007.8939    734.73841    14722.065   -19469.148    290.32564    277.86169    1.0396913       0.1285     -0.14748      0.05229     -0.01542 
  258000    -3361.425    651.20623   -4012.6312    709.71358    14741.925   -19467.449    300.09093   -625.82657    1.0243817        0.129     -0.14712      0.05226     -0.01548 
  259000   -3376.4801    642.99502   -4019.4751     746.1451    14697.753   -19466.521    296.30701   -234.28178    1.0111363       0.1295     -0.14676      0.05223     -0.01554 
  260000    -3356.184    658.50585   -4014.6898    764.54805    14683.941   -19467.351    303.45476    63.257693    1.0040758         0.13      -0.1464       0.0522      -0.0156 
  261000   -3288.0501    675.05919   -3963.1093     738.4602    14760.138   -19466.596    311.08292   -74.886745   0.99405767       0.1305     -0.14604      0.05217     -0.01566 
  262000   -3382.4516    654.21535    -4036.667    747.68156    14678.639   -19466.482     301.4776   -496.13596   0.99313446        0.131     -0.14568      0.05214     -0.01572 
  263000   -3395.1385    664.63797   -4059.7765    790.08956    14611.942    -19467.21    306.28058    296.35291    1.0228343       0.1315     -0.14532      0.05211     -0.01578 
  264000   -3365.1901    656.50355   -4021.6937       755.44    14687.069   -19468.065    302.53206   -168.03945    1.0027703        0.132     -0.14496      0.05208     -0.01584 
  265000   -3436.9021    614.97307   -4051.8751    735.01431    14674.188   -19466.565    283.39385   -933.26227    1.0079064       0.1325      -0.1446      0.05205      -0.0159 
  266000   -3364.2578    665.58501   -4029.8428    713.10051    14719.494   -19466.111      306.717   -1501.2431   0.98540598        0.133     -0.14424      0.05202     -0.01596 
  267000   -3350.4588    636.20677   -3986.6655    731.99564    14739.536   -19463.353    293.17883   -312.15463    1.0061113       0.1335     -0.14388      0.05199     -0.01602 
  268000    -3382.044    664.81924   -4046.8632    727.85772    14687.294   -19467.186    306.36412   -641.88358    1.0173063        0.134     -0.14352      0.05196     -0.01608 
  269000   -3426.1945    618.44855   -4044.6431    767.65139    14651.819   -19466.087    284.99543   -16.937373    1.0154173       0.1345     -0.14316      0.05193     -0.01614 
  270000   -3445.3533    619.79651   -4065.1498    823.64456    14575.028   -19467.356     285.6166    610.81867    1.0027592        0.135      -0.1428       0.0519      -0.0162 
  271000   -3456.3463     626.7811   -4083.1274    756.26766    14622.743    -19467.71    288.83526   -431.37475    1.0287753       0.1355     -0.14244      0.05187     -0.01626 
  272000   -3365.0467    653.68097   -4018.7276    775.00119    14665.155   -19463.574    301.23134    270.93459   0.99124102        0.136     -0.14208      0.05184     -0.01632 
  273000    -3343.916    662.56974   -4006.4857     797.0029    14658.291   -19465.446     305.3275    811.66761    1.0106909       0.1365     -0.14172      0.05181     -0.01638 
  274000   -3342.5014    665.79036   -4008.2917    800.39174    14654.642   -19466.522    306.81163    809.65545    1.0053122        0.137     -0.14136      0.05178     -0.01644 
  275000   -3377.7136    651.32843    -4029.042    762.77446    14672.375    -19466.97    300.14724   -232.49403    1.0001935       0.1375       -0.141      0.05175      -0.0165 
  276000   -3371.6523    625.38046   -3997.0327    712.12515    14752.961   -19466.059    288.18981   -1098.7042   0.99737046        0.138     -0.14064      0.05172     -0.01656 
  277000   -3391.3933    613.06813   -4004.4614    673.60209    14785.266   -19466.779    282.51601   -1782.7982   0.99793218       0.1385     -0.14028      0.05169     -0.01662 
  278000   -3378.4366    653.74076   -4032.1774    723.96861    14709.181   -19467.919     301.2589   -723.26147    1.0025342        0.139     -0.13992      0.05166     -0.01668 
  279000   -3358.3827    657.49105   -4015.8738    733.30669    14713.154   -19466.902    302.98712   -369.40428    1.0169468       0.1395     -0.13956      0.05163     -0.01674 
  280000   -3340.4703    665.36163   -4005.8319    770.17034    14685.527    -19464.26    306.61407    460.58658    1.0165941         0.14      -0.1392       0.0516      -0.0168 
  281000   -3345.1241    676.93673   -4022.0608     768.0847    14674.135   -19467.277    311.94814    292.95693    1.0068161       0.1405     -0.13884      0.05157     -0.01686 
  282000   -3342.7628    650.87585   -3993.6386    784.32601    14685.603   -19468.194    299.93868    1575.4285     1.045859        0.141     -0.13848      0.05154     -0.01692 
  283000   -3380.7985    662.57201   -4043.3705     740.6621    14680.553   -19466.651    305.32854   -155.84554    1.0299947       0.1415     -0.13812      0.05151     -0.01698 
  284000   -3349.2711    632.96522   -3982.2364    757.15417    14720.818   -19464.582    291.68505    392.12336    1.0219196        0.142     -0.13776      0.05148     -0.01704 
  285000   -3400.0341    635.96978   -4036.0038    777.34591     14650.41   -19467.175    293.06962    225.88302    1.0048109       0.1425      -0.1374      0.05145      -0.0171 
  286000   -3349.0563    653.35349   -4002.4098    712.53561    14745.412   -19463.661    301.08043   -451.45321    1.0136971        0.143     -0.13704      0.05142     -0.01716 
  287000   -3398.3011    635.65133   -4033.9524    739.74746    14687.484   -19465.179    292.92287   -437.22305    1.0221811       0.1435     -0.13668      0.05139     -0.01722 
  288000   -3379.0925    645.59649    -4024.689     728.6592    14709.976   -19466.723    297.50583   -646.56692    1.0063727        0.144     -0.13632      0.05136     -0.01728 
  289000   -3354.4549    649.34396   -4003.7989     741.7854    14715.535   -19465.466    299.23275    32.905951    1.0172009       0.1445     -0.13596      0.05133     -0.01734 
  290000   -3288.0404    680.01413   -3968.0546    778.80976    14714.751   -19465.294    313.36628    1405.9955    1.0208659        0.145      -0.1356       0.0513      -0.0174 
  291000   -3415.7949    627.79822   -4043.5932    775.40872    14643.421   -19465.885    289.30398    258.88568    1.0224785       0.1455     -0.13524      0.05127     -0.01746 
  292000    -3414.406    610.91808   -4025.3241    802.08755    14636.609   -19468.107    281.52522    880.41566    1.0119672        0.146     -0.13488      0.05124     -0.01752 
  293000   -3429.2387    623.25069   -4052.4894     758.0092     14654.99   -19468.118    287.20837   -302.29122    1.0059299       0.1465     -0.13452      0.05121     -0.01758 
  294000   -3335.0583    648.05177   -3983.1101    737.05866    14741.007   -19465.572    298.63728   -303.81364   0.99288258        0.147     -0.13416      0.05118     -0.01764 
  295000    -3405.038    625.13908    -4030.177    782.29669    14648.696   -19464.283    288.07858     628.1883    1.0196522       0.1475      -0.1338      0.05115      -0.0177 
  296000   -3312.0068    675.10187   -3987.1087    662.91706    14810.443   -19464.921    311.10259   -1862.7816   0.98386389        0.148     -0.13344      0.05112     -0.01776 
  297000   -3319.8513    659.74853   -3979.5998    706.28177    14775.169   -19466.486    304.02742   -855.24946   0.98449262       0.1485     -0.13308      0.05109     -0.01782 
  298000   -3381.2559    658.10215    -4039.358    753.51416    14671.695   -19468.396    303.26873   -484.59753   0.99485406        0.149     -0.13272      0.05106     -0.01788 
  299000   -3404.2749    663.07601   -4067.3509    699.59615    14695.724   -19466.815     305.5608   -1145.4547    1.0279139       0.1495     -0.13236      0.05103     -0.01794 
  300000   -3385.5244    637.67777   -4023.2022    771.27861    14668.586   -19467.281     293.8567    140.21965    1.0037379         0.15       -0.132        0.051       -0.018 
  301000   -3360.0594    664.40918   -4024.4686    699.73135    14737.084   -19465.413    306.17515    -1007.104    1.0212411       0.1505     -0.13164      0.05097     -0.01806 
  302000   -3403.4354      621.565   -4025.0004    821.60643    14616.215   -19466.046    286.43156    926.39136    1.0040361        0.151     -0.13128      0.05094     -0.01812 
  303000   -3370.0403     659.3954   -4029.4357    769.74283     14664.04   -19466.482    303.86469    82.302663    1.0069896       0.1515     -0.13092      0.05091     -0.01818 
  304000   -3344.8718    649.36779   -3994.2396    745.73992    14724.262   -19467.982    299.24373   -360.63487   0.99669368        0.152     -0.13056      0.05088     -0.01824 
  305000   -3383.6842     629.8829   -4013.5671    749.67608    14699.323   -19465.867    290.26464   -339.50319   0.99379868       0.1525      -0.1302      0.05085      -0.0183 
  306000     -3391.72    635.57706    -4027.297    773.39204    14660.565   -19465.211    292.88864    68.062251    1.0154744        0.153     -0.12984      0.05082     -0.01836 
  307000   -3351.1975    643.95784   -3995.1553    707.48775    14758.937   -19465.327     296.7507   -1122.3189   0.99077131       0.1535     -0.12948      0.05079     -0.01842 
  308000   -3380.7399    642.60981   -4023.3497    788.49292    14649.075   -19464.652     296.1295    408.91614    1.0007201        0.154     -0.12912      0.05076     -0.01848 
  309000   -3329.6751    683.86177   -4013.5368    785.59414    14662.999   -19466.693    315.13936    618.64091    1.0090067       0.1545     -0.12876      0.05073     -0.01854 
  310000    -3347.676    674.33603    -4022.012    770.39666     14670.87   -19466.465    310.74967    373.64423    1.0099102        0.155      -0.1284       0.0507      -0.0186 
  311000    -3361.055    634.44457   -3995.4995    749.06242     14719.04    -19467.07    292.36677   -331.69307   0.98700023       0.1555     -0.12804      0.05067     -0.01866 
  312000   -3361.6968    651.23095   -4012.9278    764.98569    14683.493   -19463.809    300.10232    44.999264     1.001039        0.156     -0.12768      0.05064     -0.01872 
  313000   -3346.3333    697.99788   -4044.3312    809.58292    14607.251   -19465.019    321.65361    805.82159    1.0142721       0.1565     -0.12732      0.05061     -0.01878 
  314000   -3408.7881    625.94284   -4034.7309    769.17075    14656.665   -19464.016    288.44897    5.9589129     1.006733        0.157     -0.12696      0.05058     -0.01884 
  315000   -3341.5973    675.76812   -4017.3654    754.48632    14690.095   -19466.083    311.40961    267.90345    1.0171355       0.1575      -0.1266      0.05055      -0.0189 
  316000   -3398.0775    636.54499   -4034.6224    778.94773    14646.788   -19464.439    293.33469   -48.526722   0.99934062        0.158     -0.12624      0.05052     -0.01896 
  317000   -3359.3857     624.0697   -3983.4554    752.19607    14726.095     -19464.6    287.58578    544.54204    1.0248853       0.1585     -0.12588      0.05049     -0.01902 
  318000   -3350.9168    663.17885   -4014.0956    762.19282     14685.63   -19465.664    305.60819    117.10332    1.0030355        0.159     -0.12552      0.05046     -0.01908 
  319000   -3324.1787    662.96448   -3987.1432     696.7007      14779.1   -19466.248     305.5094   -1074.1342      1.01022       0.1595     -0.12516      0.05043     -0.01914 
  320000   -3324.4505    625.19944   -3949.6499    687.02912    14825.102   -19465.856    288.10639   -962.64896    1.0158996         0.16      -0.1248       0.0504      -0.0192 
  321000   -3385.2236    651.60127   -4036.8249    741.01402    14686.577   -19467.368    300.27297   -211.08942     1.022378       0.1605     -0.12444      0.05037     -0.01926 
  322000   -3262.4552    684.60739   -3947.0626    710.75966    14804.409   -19466.873    315.48295   -268.59142    1.0087675        0.161     -0.12408      0.05034     -0.01932 
  323000   -3438.3685    629.64773   -4068.0162    744.56456    14650.719   -19466.006    290.15627   -663.18377    1.0022433       0.1615     -0.12372      0.05031     -0.01938 
  324000   -3384.0422    611.25083   -3995.2931    799.79214    14668.973    -19467.04    281.67856     1293.748    1.0296349        0.162     -0.12336      0.05028     -0.01944 
  325000   -3354.3047    641.30208   -3995.6068    754.88511    14711.207   -19464.941    295.52687    408.55849    1.0320298       0.1625       -0.123      0.05025      -0.0195 
  326000   -3331.9939    644.60325   -3976.5971    746.28562    14740.741   -19467.249    297.04812    507.63418    1.0153125        0.163     -0.12264      0.05022     -0.01956 
  327000   -3336.4572    654.75758   -3991.2148    763.89916    14707.744   -19467.052    301.72747    232.98463   0.99829467       0.1635     -0.12228      0.05019     -0.01962 
  328000   -3339.5317    664.07838   -4003.6101    744.83968    14714.157   -19465.501    306.02271     126.0681    1.0210172        0.164     -0.12192      0.05016     -0.01968 
  329000   -3397.4289    645.97156   -4043.4004    724.01214    14694.654    -19465.85    297.67867   -920.32836    1.0069773       0.1645     -0.12156      0.05013     -0.01974 
  330000   -3388.1903    653.73827   -4041.9286    803.73588    14617.137   -19466.756    301.25775    788.02376    1.0125337        0.165      -0.1212       0.0501      -0.0198 
  331000   -3371.1599    649.20405   -4020.3639    754.58364    14688.812   -19468.054    299.16828    63.915203     1.024106       0.1655     -0.12084      0.05007     -0.01986 
  332000   -3360.0277    679.57659   -4039.6043    780.30158    14642.218   -19467.085    313.16465    329.04579    1.0130279        0.166     -0.12048      0.05004     -0.01992 
  333000   -3309.9345    683.20304   -3993.1375    709.96384    14762.207   -19467.112     314.8358   -777.01351   0.99968307       0.1665     -0.12012      0.05001     -0.01998 
  334000   -3355.7601     631.9114   -3987.6715    738.88787    14730.197   -19463.282    291.19942   -141.16716    1.0128914        0.167     -0.11976      0.04998     -0.02004 
  335000   -3327.5137    641.94059   -3969.4543    739.55848    14755.635   -19467.271    295.82111    61.465917   0.99518761       0.1675      -0.1194      0.04995      -0.0201 
  336000   -3357.0475    649.95789   -4007.0054    718.18128    14737.298   -19466.036    299.51566   -1061.3879   0.98770096        0.168     -0.11904      0.04992     -0.02016 
  337000   -3365.9585    638.34185   -4004.3004    736.50197    14719.188   -19464.206    294.16272   -683.00998   0.98562663       0.1685     -0.11868      0.04989     -0.02022 
  338000   -3347.1622    623.71075   -3970.8729     781.8906    14708.202   -19464.755    287.42037    1426.5478    1.0295735        0.169     -0.11832      0.04986     -0.02028 
  339000   -3336.6989    624.88918   -3961.5881     735.6849    14766.981   -19467.106    287.96342   -180.93299    1.0013485       0.1695     -0.11796      0.04983     -0.02034 
  340000   -3259.8281    675.86394   -3935.6921    758.39365    14762.903   -19461.968    311.45377    588.57159    1.0060113         0.17      -0.1176       0.0498      -0.0204 
  341000   -3291.8068    651.67236   -3943.4792    799.24994    14717.232   -19465.949    300.30573    1098.1638     1.002049       0.1705     -0.11724      0.04977     -0.02046 
  342000   -3376.7715    662.43594   -4039.2074    831.00469    14588.894   -19464.405    305.26584    1559.5862    1.0245805        0.171     -0.11688      0.04974     -0.02052 
  343000   -3307.8718    649.08422    -3956.956    743.57557     14761.03   -19465.993    299.11306    249.00233    1.0178194       0.1715     -0.11652      0.04971     -0.02058 
  344000   -3335.1875    681.84659   -4017.0341    730.25057    14714.251   -19465.009    314.21072   -351.50057    1.0092397        0.172     -0.11616      0.04968     -0.02064 
  345000   -3296.6052    670.90225   -3967.5075    679.66011    14815.107    -19467.08    309.16731   -841.10735    1.0145758       0.1725      -0.1158      0.04965      -0.0207 
  346000   -3379.8724    653.58539   -4033.4578    749.39495    14678.157   -19465.199     301.1873   -133.91866    1.0152284        0.173     -0.11544      0.04962     -0.02076 
  347000   -3436.4483    640.05802   -4076.5063    772.79469    14614.519   -19466.628    294.95357   -99.301162    1.0184462       0.1735     -0.11508      0.04959     -0.02082 
  348000   -3457.4839    613.60878   -4071.0927     810.4093    14578.573   -19464.697    282.76515    786.36935    1.0185204        0.174     -0.11472      0.04956     -0.02088 
  349000   -3365.1065    632.92762   -3998.0341    754.88036     14709.62    -19465.61    291.66772   -387.95983   0.99391563       0.1745     -0.11436      0.04953     -0.02094 
  350000   -3366.5543    648.21514   -4014.7694     813.1573    14630.076   -19464.179    298.71256      1215.48     1.022513        0.175       -0.114       0.0495       -0.021 
  351000   -3374.9383    663.09445   -4038.0328    811.03034     14609.33   -19463.802     305.5693    900.77432     1.008484       0.1755     -0.11364      0.04947     -0.02106 
  352000   -3407.2854    668.61998   -4075.9054    741.46537    14643.904   -19465.072    308.11559   -867.55921    1.0039995        0.176     -0.11328      0.04944     -0.02112 
  353000   -3434.8365    622.93769   -4057.7742    769.64101    14633.638   -19465.007    287.06413    23.076288     1.030053       0.1765     -0.11292      0.04941     -0.02118 
  354000   -3324.9446    651.16848   -3976.1131    743.01661    14742.909   -19466.429    300.07353    66.923721    1.0003225        0.177     -0.11256      0.04938     -0.02124 
  355000   -3405.1925    619.85863   -4025.0511    747.74365     14688.78   -19467.812    285.64523   -294.76969    1.0123239       0.1775      -0.1122      0.04935      -0.0213 
  356000    -3346.042     650.4215   -3996.4635    740.99908    14723.698   -19466.546    299.72931    -501.3898   0.99006868        0.178     -0.11184      0.04932     -0.02136 
  357000   -3394.8132    644.56604   -4039.3792    750.37446    14674.373   -19467.704    297.03098   -526.42383    1.0005339       0.1785     -0.11148      0.04929     -0.02142 
  358000   -3346.2092    656.46418   -4002.6734     769.2857    14687.053   -19466.066    302.51391    304.85412   0.99755081        0.179     -0.11112      0.04926     -0.02148 
  359000   -3406.7805    652.17584   -4058.9564    783.90167    14620.092   -19468.486    300.53775    224.03857    1.0000398       0.1795     -0.11076      0.04923     -0.02154 
  360000    -3353.786    655.30342   -4009.0894    739.74778    14716.331    -19467.29    301.97901   -323.19559    1.0157291         0.18      -0.1104       0.0492      -0.0216 
  361000   -3349.8727    635.70135    -3985.574    764.96622     14711.41   -19465.626    292.94592     497.1765    1.0139419       0.1805     -0.11004      0.04917     -0.02166 
  362000   -3385.3183    625.43626   -4010.7546    788.86412    14663.327   -19467.147    288.21553    762.91485    1.0158553        0.181     -0.10968      0.04914     -0.02172 
  363000   -3401.8089    624.48733   -4026.2962    741.66146    14694.611   -19465.884    287.77824   -365.46033    1.0102066       0.1815     -0.10932      0.04911     -0.02178 
  364000   -3323.4747    678.30048   -4001.7752    763.12704    14696.773   -19464.949    312.57658    432.88101    1.0201044        0.182     -0.10896      0.04908     -0.02184 
  365000   -3346.7998    656.43621   -4003.2361    765.68548     14691.64   -19464.825    302.50103   -129.11255   0.99206115       0.1825      -0.1086      0.04905      -0.0219 
  366000   -3323.7608    680.89902   -4004.6598    761.63585    14694.834   -19465.078    313.77405    495.11816    1.0124391        0.183     -0.10824      0.04902     -0.02196 
  367000   -3358.8219    679.27282   -4038.0947    752.31546    14672.497   -19465.931    313.02466   -231.15261    1.0106619       0.1835     -0.10788      0.04899     -0.02202 
  368000   -3366.5354    643.10636   -4009.6418    716.27447    14741.062   -19469.193    296.35832    -984.0008   0.99389392        0.184     -0.10752      0.04896     -0.02208 
  369000   -3375.7199    639.68319   -4015.4031    831.60907    14614.475   -19466.696    294.78084    1314.7185    1.0082095       0.1845     -0.10716      0.04893     -0.02214 
  370000   -3381.6012    632.78202   -4014.3832    755.46104    14693.384    -19467.77    291.60063    57.930403     1.011482        0.185      -0.1068       0.0489      -0.0222 
  371000   -3331.9561    644.43191    -3976.388    754.64518     14729.82   -19466.374    296.96917    487.20724    1.0070503       0.1855     -0.10644      0.04887     -0.02226 
  372000   -3295.2617    654.43725   -3949.6989    704.93241    14806.662    -19466.07    301.57986    115.27004    1.0284578        0.186     -0.10608      0.04884     -0.02232 
  373000   -3428.3513    633.95768    -4062.309    733.91632    14666.092   -19465.927     292.1424    -437.1032    1.0318089       0.1865     -0.10572      0.04881     -0.02238 
  374000   -3349.0999    669.34926   -4018.4492    718.70543    14727.029   -19466.873    308.45166   -493.38638    1.0223097        0.187     -0.10536      0.04878     -0.02244 
  375000   -3381.9815    647.10754    -4029.089    751.10438    14681.857   -19465.279    298.20216    57.471615    1.0246103       0.1875       -0.105      0.04875      -0.0225 
  376000   -3371.5004    679.76167   -4051.2621    770.85416    14639.826   -19467.029    313.24994   -55.774561    1.0124791        0.188     -0.10464      0.04872     -0.02256 
  377000   -3317.0485    673.70003   -3990.7485    776.59669     14695.94   -19465.358    310.45659    197.18021   0.99411813       0.1885     -0.10428      0.04869     -0.02262 
  378000   -3323.4422    664.25252   -3987.6947    783.68945    14687.452   -19463.852    306.10296    508.19885   0.99313148        0.189     -0.10392      0.04866     -0.02268 
  379000   -3264.2147    695.61263   -3959.8273    724.85017    14776.845   -19465.731    320.55443    -48.50256    1.0057146       0.1895     -0.10356      0.04863     -0.02274 
  380000   -3331.1072    634.36697   -3965.4742    700.33363    14797.306   -19467.144    292.33101   -1289.9814   0.98640327         0.19      -0.1032       0.0486      -0.0228 
  381000   -3368.4246    640.55107   -4008.9757    772.22302    14681.863   -19468.295    295.18078   -151.43051    1.0002833       0.1905     -0.10284      0.04857     -0.02286 
  382000   -3332.3982    620.62715   -3953.0254    746.09853    14759.833    -19463.52    285.99938    64.332312    1.0019793        0.191     -0.10248      0.04854     -0.02292 
  383000   -3336.1638     651.0932    -3987.257    719.79243    14754.104   -19465.724    300.03884   -709.49057   0.99095336       0.1915     -0.10212      0.04851     -0.02298 
  384000   -3326.4661    653.77685   -3980.2429    720.91152    14760.287   -19464.954    301.27553   -655.61664   0.98866716        0.192     -0.10176      0.04848     -0.02304 
  385000   -3369.5778    648.23132   -4017.8091    745.33967    14697.795    -19465.39    298.72002   -402.35116    1.0132059       0.1925      -0.1014      0.04845      -0.0231 
  386000   -3353.6508    651.63445   -4005.2853    740.05266    14717.111   -19466.092    300.28826    -210.6623    1.0036818        0.193     -0.10104      0.04842     -0.02316 
  387000    -3316.231    665.27156   -3981.5026    753.70662    14726.593   -19466.727    306.57256    509.69175    1.0053976       0.1935     -0.10068      0.04839     -0.02322 
  388000    -3393.629    618.40308   -4012.0321    765.90997    14679.448   -19463.763    284.97448    75.668017    1.0159885        0.194     -0.10032      0.04836     -0.02328 
  389000   -3357.4927    629.00291   -3986.4956    728.55255     14743.92   -19463.213    289.85912   -709.31689    0.9931531       0.1945     -0.09996      0.04833     -0.02334 
  390000   -3345.3898    627.62602   -3973.0159    820.58926     14667.58   -19465.563    289.22462    1516.8954    1.0017454        0.195      -0.0996       0.0483      -0.0234 
  391000   -3370.4516    653.11755   -4023.5691    717.03739    14719.793   -19465.304    300.97171   -653.37671    1.0170248       0.1955     -0.09924      0.04827     -0.02346 
  392000   -3314.6618    656.44149   -3971.1033    706.39602    14781.667   -19463.966    302.50346   -631.89971   0.99935587        0.196     -0.09888      0.04824     -0.02352 
  393000   -3343.6385    692.94672   -4036.5852    772.43009    14652.857   -19465.886    319.32591      208.871    1.0078578       0.1965     -0.09852      0.04821     -0.02358 
  394000   -3398.0307    643.24459   -4041.2753    768.01946    14653.583   -19466.909    296.42202   -313.18165   0.99856834        0.197     -0.09816      0.04818     -0.02364 
  395000   -3462.9545    622.18488   -4085.1393    796.28452    14580.101   -19466.578    286.71722    274.75145    1.0166951       0.1975      -0.0978      0.04815      -0.0237 
  396000   -3369.6227    637.07193   -4006.6947    804.09524    14650.981   -19465.614    293.57752     823.1067   0.98703094        0.198     -0.09744      0.04812     -0.02376 
  397000   -3412.5953    655.18238   -4067.7777    824.43198    14570.271   -19468.326    301.92323    1136.3176    1.0185309       0.1985     -0.09708      0.04809     -0.02382 
  398000   -3378.6066    655.42415   -4034.0308    800.32464     14624.69   -19464.073    302.03464    908.01816   0.99808869        0.199     -0.09672      0.04806     -0.02388 
  399000   -3384.3528    668.01876   -4052.3715    744.22226     14666.01   -19468.375    307.83853   -486.83643    1.0129158       0.1995     -0.09636      0.04803     -0.02394 
  400000   -3406.2827    651.24708   -4057.5298    815.37093    14587.845   -19466.904    300.10975    371.21036   0.99067451          0.2       -0.096        0.048       -0.024 
  401000   -3408.1315      673.228   -4081.3595    815.43869    14565.058   -19466.534    310.23907    1061.5185    1.0245795       0.2005     -0.09564      0.04797     -0.02406 
  402000   -3333.2138    667.79908   -4001.0129    741.91556    14716.608   -19464.956     307.7373   -660.68847   0.98874898        0.201     -0.09528      0.04794     -0.02412 
  403000   -3329.1528    662.91286   -3992.0657    753.10813    14716.878   -19466.813    305.48561      302.792    1.0037679       0.2015     -0.09492      0.04791     -0.02418 
  404000   -3339.7435    645.05585   -3984.7994    722.07483    14751.902    -19463.64    297.25669   -487.87787    1.0000091        0.202     -0.09456      0.04788     -0.02424 
  405000   -3394.1307    616.97051   -4011.1013    803.99297    14647.028   -19466.425    284.31431    590.93949   0.99395373       0.2025      -0.0942      0.04785      -0.0243 
  406000   -3336.7415    694.09836   -4030.8398    804.10518    14627.041   -19466.339    319.85661    352.78669   0.97822688        0.203     -0.09384      0.04782     -0.02436 
  407000   -3338.5101    673.88897   -4012.3991    771.05647    14675.078   -19465.692    310.54366    540.06936    1.0190814       0.2035     -0.09348      0.04779     -0.02442 
  408000   -3345.8396    640.74062   -3986.5802     756.0727    14717.726   -19465.167    295.26813   -43.441945   0.98200976        0.204     -0.09312      0.04776     -0.02448 
  409000   -3398.6239    603.16397   -4001.7879    792.31818    14665.531   -19465.413    277.95194    322.99576    0.9885741       0.2045     -0.09276      0.04773     -0.02454 
  410000    -3369.682    652.74425   -4022.4262    803.36325    14637.183   -19467.529    300.79968    639.80551    1.0034201        0.205      -0.0924       0.0477      -0.0246 
  411000   -3311.2218    655.83112   -3967.0529    715.69055    14774.763    -19461.22    302.22218   -736.76766   0.98000286       0.2055     -0.09204      0.04767     -0.02466 
  412000   -3402.4971    633.66027   -4036.1573    780.08651     14647.21   -19465.701    292.00534    248.95753   0.99710681        0.206     -0.09168      0.04764     -0.02472 
  413000   -3400.1357    646.93925    -4047.075    738.77983    14677.918   -19466.619     298.1246   -696.50418    1.0021269       0.2065     -0.09132      0.04761     -0.02478 
  414000   -3377.5089    660.17929   -4037.6882    755.52444    14670.082   -19466.288    304.22592   -1.3659241    1.0227894        0.207     -0.09096      0.04758     -0.02484 
  415000   -3355.3113    648.85761   -4004.1689    728.36359    14730.991   -19466.466    299.00863   -526.91385   0.99967693       0.2075      -0.0906      0.04755      -0.0249 
  416000   -3337.0434    649.40417   -3986.4476    741.24185     14734.64    -19465.88     299.2605   -218.20784    0.9955716        0.208     -0.09024      0.04752     -0.02496 
  417000   -3352.3938     654.9669   -4007.3607    777.12244    14673.874    -19461.85    301.82393    614.46646    1.0228911       0.2085     -0.08988      0.04749     -0.02502 
  418000   -3376.0237    659.71334   -4035.7371    677.27346     14749.28   -19465.432     304.0112   -2182.1109   0.99472474        0.209     -0.08952      0.04746     -0.02508 
  419000   -3398.3521    633.45772   -4031.8098    742.33814    14688.141   -19466.152      291.912    -245.8559    1.0063125       0.2095     -0.08916      0.04743     -0.02514 
  420000   -3426.9653    635.38631   -4062.3516    853.32686     14545.31   -19464.808    292.80074    1982.0332    1.0278602         0.21      -0.0888       0.0474      -0.0252 
  421000   -3425.1926    662.60697   -4087.7995    753.76014    14622.999   -19467.416    305.34465   -604.80937    1.0154192       0.2105     -0.08844      0.04737     -0.02526 
  422000   -3399.9965    648.39256    -4048.389    730.51826    14682.115   -19465.157    298.79432    -1335.184   0.99123576        0.211     -0.08808      0.04734     -0.02532 
  423000   -3343.0227    632.42646   -3975.4491    722.08147    14767.729   -19467.655    291.43677   -520.11335   0.99735289       0.2115     -0.08772      0.04731     -0.02538 
  424000   -3381.5297    664.35644   -4045.8862    757.99098    14659.849   -19465.878    306.15085    53.019738    1.0224903        0.212     -0.08736      0.04728     -0.02544 
  425000   -3406.7996    639.61114   -4046.4107    727.36094    14688.086   -19465.394    294.74764   -1268.3303   0.99179314       0.2125       -0.087      0.04725      -0.0255 
  426000   -3342.9129    696.01164   -4038.9246     782.5849    14636.672   -19462.365     320.7383    493.63215    1.0215636        0.213     -0.08664      0.04722     -0.02556 
  427000    -3403.262    650.50763   -4053.7697    781.22307    14629.248   -19466.995      299.769    241.77041    1.0106314       0.2135     -0.08628      0.04719     -0.02562 
  428000   -3364.5768    651.95585   -4016.5327     762.0973     14683.18   -19466.453    300.43637   -173.50798   0.99725662        0.214     -0.08592      0.04716     -0.02568 
  429000   -3392.4495    633.38523   -4025.8347    774.99715    14658.477    -19463.56     291.8786    102.27348    1.0011189       0.2145     -0.08556      0.04713     -0.02574 
  430000   -3399.9249    638.98214   -4038.9071     781.1277    14641.004   -19464.526    294.45778    198.34468    1.0002544        0.215      -0.0852       0.0471      -0.0258 
  431000    -3370.538    644.99596    -4015.534    783.30307    14661.713   -19464.381    297.22909    277.94854   0.99251999       0.2155     -0.08484      0.04707     -0.02586 
  432000   -3286.8639    664.84078   -3951.7047    790.54817    14717.832   -19464.791    306.37404     789.7866   0.98382951        0.216     -0.08448      0.04704     -0.02592 
  433000   -3365.1388    658.74668   -4023.8855    749.34317    14685.319   -19465.196    303.56574   -769.72013   0.97858763       0.2165     -0.08412      0.04701     -0.02598 
  434000   -3453.8886     674.6086   -4128.4972    796.28709    14541.358    -19470.13    310.87528    122.82497    1.0287085        0.217     -0.08376      0.04698     -0.02604 
  435000   -3393.1434    657.44455   -4050.5879    766.53802    14645.747   -19468.305    302.96569     -104.975     1.009933       0.2175      -0.0834      0.04695      -0.0261 
  436000   -3370.2318    643.06012    -4013.292     735.7206     14712.55   -19464.404    296.33701   -203.08472     1.014959        0.218     -0.08304      0.04692     -0.02616 
  437000   -3350.8138    639.16642   -3989.9802    770.86583    14698.364   -19463.622     294.5427     -118.504    0.9903549       0.2185     -0.08268      0.04689     -0.02622 
  438000   -3406.8674    631.26356   -4038.1309    770.45711    14650.624   -19463.875    290.90088   -59.473926    1.0094272        0.219     -0.08232      0.04686     -0.02628 
  439000   -3351.0138    649.60164   -4000.6155    730.88658    14731.635     -19466.8     299.3515   -17.246493    1.0162667       0.2195     -0.08196      0.04683     -0.02634 
  440000   -3344.8301    645.80916   -3990.6393    696.52788    14774.335   -19465.566    297.60383   -1268.2123    0.9865796         0.22      -0.0816       0.0468      -0.0264 
  441000   -3424.8253    634.14042   -4058.9657    762.62111    14643.996    -19468.82    292.22661   -146.09801    1.0285774       0.2205     -0.08124      0.04677     -0.02646 
  442000   -3348.7145    659.36068   -4008.0752    769.09766    14682.484   -19465.405    303.84869    227.03431    1.0119464        0.221     -0.08088      0.04674     -0.02652 
  443000   -3378.0823    652.27683   -4030.3592    776.44098    14654.391   -19465.895    300.58428    498.41622    1.0252946       0.2215     -0.08052      0.04671     -0.02658 
  444000   -3431.1442    612.45792   -4043.6021    805.29879    14614.434   -19466.974    282.23481    236.28347    1.0000587        0.222     -0.08016      0.04668     -0.02664 
  445000   -3390.2532    672.64133   -4062.8946    735.28733      14665.4   -19468.629    309.96872   -1024.5573    1.0001368       0.2225      -0.0798      0.04665      -0.0267 
  446000   -3370.6826    646.94126   -4017.6238    756.76779    14687.138    -19465.57    298.12553   -262.18119   0.99014682        0.223     -0.07944      0.04662     -0.02676 
  447000   -3398.2904    652.63909   -4050.9295    795.30995    14615.036    -19466.16    300.75122    220.37887    0.9972582       0.2235     -0.07908      0.04659     -0.02682 
  448000    -3327.645    684.68296   -4012.3279    810.08648    14641.726   -19467.019    315.51778    1167.7527    1.0091563        0.224     -0.07872      0.04656     -0.02688 
  449000   -3300.1539    671.63634   -3971.7903    782.23313    14701.146   -19458.816     309.5056    338.15433   0.98676183       0.2245     -0.07836      0.04653     -0.02694 
  450000   -3372.1326    640.03981   -4012.1724     722.7676    14728.793   -19466.859    294.94518   -243.43448    1.0193099        0.225       -0.078       0.0465       -0.027 
  451000    -3402.695    661.43065   -4064.1256    818.26605    14580.556   -19466.553    304.80258    830.01558     1.003863       0.2255     -0.07764      0.04647     -0.02706 
  452000   -3363.0708     653.8985   -4016.9693    813.81263    14630.279    -19464.38    301.33159    805.76212   0.99104378        0.226     -0.07728      0.04644     -0.02712 
  453000   -3337.3145    670.88652   -4008.2011    764.82858    14691.218    -19466.67    309.16006    35.650201   0.99601868       0.2265     -0.07692      0.04641     -0.02718 
  454000   -3358.5638    650.04687   -4008.6107    743.67548    14710.726    -19466.04    299.55667   -200.91394   0.99690247        0.227     -0.07656      0.04638     -0.02724 
  455000   -3356.0545    653.64538   -4009.6999    741.73576    14708.049   -19463.332    301.21494   -358.75725   0.99106254       0.2275      -0.0762      0.04635      -0.0273 
  456000   -3375.9688      616.394   -3992.3628    739.70611    14726.388   -19462.455    284.04865   -328.71579    1.0214556        0.228     -0.07584      0.04632     -0.02736 
  457000   -3325.0948     652.6844   -3977.7792    679.61515    14801.546   -19462.971     300.7721   -1597.6155   0.99468719       0.2285     -0.07548      0.04629     -0.02742 
  458000   -3400.4774    646.02833   -4046.5057    759.67083    14654.962    -19465.71    297.70483   -194.87302    0.9974183        0.229     -0.07512      0.04626     -0.02748 
  459000     -3370.13    643.43428   -4013.5643     747.4455    14700.684   -19464.513    296.50943   -206.41421    1.0131448       0.2295     -0.07476      0.04623     -0.02754 
  460000   -3386.6893    621.82245   -4008.5118     718.1285    14735.438   -19467.577     286.5502   -792.75371    1.0137839         0.23      -0.0744       0.0462      -0.0276 
  461000   -3438.1206    631.60454   -4069.7251     715.7893    14676.118   -19465.025    291.05801   -1354.2492    1.0124667       0.2305     -0.07404      0.04617     -0.02766 
  462000    -3339.697     682.4523   -4022.1493     763.4335     14676.76   -19466.558    314.48984    305.72837    1.0036416        0.231     -0.07368      0.04614     -0.02772 
  463000   -3362.3985    643.57838   -4005.9769      718.915     14736.92   -19467.417    296.57584   -933.11912   0.99247221       0.2315     -0.07332      0.04611     -0.02778 
  464000   -3361.9497    652.91292   -4014.8627    739.17488    14707.102     -19464.6    300.87741   -340.34322    1.0086199        0.232     -0.07296      0.04608     -0.02784 
  465000   -3387.5922    677.90032   -4065.4925    782.74915    14615.016   -19468.023    312.39218    227.07161    1.0093276       0.2325      -0.0726      0.04605      -0.0279 
  466000   -3364.7918    655.96818     -4020.76    769.71669    14672.168   -19465.923    302.28534    326.32419    1.0053856        0.233     -0.07224      0.04602     -0.02796 
  467000   -3322.7826    661.24409   -3984.0267    781.02895    14696.679   -19465.012     304.7166      562.974   0.99070139       0.2335     -0.07188      0.04599     -0.02802 
  468000   -3323.7762    662.73512   -3986.5113    731.96755    14742.023   -19465.228    305.40371      -214.76    1.0069277        0.234     -0.07152      0.04596     -0.02808 
  469000   -3354.4739    628.32405    -3982.798      717.796    14762.339   -19465.917    289.54629   -507.98968    1.0117545       0.2345     -0.07116      0.04593     -0.02814 
  470000   -3357.7412    648.71431   -4006.4555     740.2029     14715.04   -19466.024    298.94259    121.11791    1.0203888        0.235      -0.0708       0.0459      -0.0282 
  471000   -3379.6338    642.51725    -4022.151    780.57514     14660.27   -19466.836    296.08684    512.48288     1.011778       0.2355     -0.07044      0.04587     -0.02826 
  472000   -3241.7176    690.15614   -3931.8738     715.8497    14810.446   -19464.151    318.03995   -373.82148   0.99189439        0.236     -0.07008      0.04584     -0.02832 
  473000   -3346.0546     639.9773   -3986.0319     777.4604    14695.124   -19463.747    294.91637    375.21041    1.0061224       0.2365     -0.06972      0.04581     -0.02838 
  474000   -3313.4623    676.46258   -3989.9248    715.65521     14754.08   -19463.769    311.72964   -207.11448     1.019794        0.237     -0.06936      0.04578     -0.02844 
  475000   -3368.4443    627.75091   -3996.1952    765.91986    14697.943   -19465.983    289.28217     296.1817    1.0009334       0.2375       -0.069      0.04575      -0.0285 
  476000   -3407.4095    639.68392   -4047.0934    749.96272    14664.044   -19465.477    294.78118   -2.7078894    1.0254302        0.238     -0.06864      0.04572     -0.02856 
  477000   -3337.7599    633.99402   -3971.7539    747.13058    14742.378   -19466.083    292.15914   -300.51722    1.0017129       0.2385     -0.06828      0.04569     -0.02862 
  478000   -3285.6876     646.3862   -3932.0738    723.04165    14804.757   -19464.245    297.86974   -293.81824   0.98855403        0.239     -0.06792      0.04566     -0.02868 
  479000   -3278.6107    659.26228    -3937.873    714.53801     14808.92   -19465.643    303.80334   -461.90474   0.97660386       0.2395     -0.06756      0.04563     -0.02874 
  480000   -3373.8545    623.98727   -3997.8417     748.2925    14717.562    -19468.46     287.5478   -287.59412    1.0148263         0.24      -0.0672       0.0456      -0.0288 
  481000   -3393.6624    658.30667   -4051.9691    758.12153    14650.166   -19464.311    303.36298   -680.74593      1.00248       0.2405     -0.06684      0.04557     -0.02886 
  482000   -3347.0966     659.4066   -4006.5032    769.92589     14682.61   -19463.722    303.86985     180.9956    1.0101914        0.241     -0.06648      0.04554     -0.02892 
  483000    -3347.174    645.57496   -3992.7489    723.36951    14745.025   -19464.566    297.49591   -791.57646   0.98864638       0.2415     -0.06612      0.04551     -0.02898 
  484000   -3360.9521    663.94692    -4024.899    826.38671    14607.743   -19463.754    305.96213    991.31664   0.99325816        0.242     -0.06576      0.04548     -0.02904 
  485000   -3407.4312    622.39509   -4029.8263    764.37618    14668.119   -19464.713    286.81409   -226.14226   0.99900179       0.2425      -0.0654      0.04545      -0.0291 
  486000   -3335.5465    665.86451    -4001.411    745.96169    14715.373   -19464.824     306.8458   -164.92741     0.988271        0.243     -0.06504      0.04542     -0.02916 
  487000   -3400.2765    632.74507   -4033.0215    780.04524    14650.197   -19466.766     291.5836    273.24773    1.0015692       0.2435     -0.06468      0.04539     -0.02922 
  488000   -3389.4366     627.2749   -4016.7115    803.68841    14642.456    -19466.56    289.06281    546.61235    1.0102388        0.244     -0.06432      0.04536     -0.02928 
  489000   -3325.6191    690.50043   -4016.1195    732.88788    14713.072   -19465.277    318.19861   -531.54035    1.0049839       0.2445     -0.06396      0.04533     -0.02934 
  490000   -3380.6341    628.18379   -4008.8179    738.03888    14714.592   -19466.411    289.48165    78.313842    1.0197959        0.245      -0.0636       0.0453      -0.0294 
  491000   -3438.1659    648.02345   -4086.1894    775.77676    14600.414   -19465.805    298.62423   -192.19908    1.0119036       0.2455     -0.06324      0.04527     -0.02946 
  492000   -3361.2186    662.76163   -4023.9802    711.00723    14724.869   -19465.349    305.41592   -990.72391    1.0061042        0.246     -0.06288      0.04524     -0.02952 
  493000   -3421.4498    630.29076   -4051.7405    723.76816    14684.941   -19465.594     290.4526   -965.87198    1.0174366       0.2465     -0.06252      0.04521     -0.02958 
  494000   -3379.4247    630.64711   -4010.0718    749.28213    14702.279   -19466.324    290.61681    158.88648    1.0170489        0.247     -0.06216      0.04518     -0.02964 
  495000   -3363.0558    642.57546   -4005.6313    731.95674    14718.638   -19462.047    296.11367   -209.99795    1.0249711       0.2475      -0.0618      0.04515      -0.0297 
  496000   -3439.0568    645.30879   -4084.3656    791.84075    14585.368   -19466.721    297.37325    277.87929    1.0218773        0.248     -0.06144      0.04512     -0.02976 
  497000   -3401.2028     640.2208   -4041.4235    725.27069    14692.175   -19464.812    295.02858   -1033.5876   0.98952268       0.2485     -0.06108      0.04509     -0.02982 
  498000   -3308.4494    653.30583   -3961.7553    794.93061    14703.089   -19464.952    301.05847    1401.0889    1.0050777        0.249     -0.06072      0.04506     -0.02988 
  499000   -3334.6938     672.2982    -4006.992    731.83162    14722.248   -19465.533    309.81059   -306.33082    1.0125948       0.2495     -0.06036      0.04503     -0.02994 
  500000    -3435.678    617.41114   -4053.0891    729.45939    14681.839   -19466.894    284.51737   -768.33339    1.0233365         0.25        -0.06        0.045        -0.03 
  501000   -3379.0735    663.47923   -4042.5527    766.55912    14655.336   -19468.576    305.74661     334.0615    1.0278638       0.2505     -0.05964      0.04497     -0.03006 
  502000   -3316.5178    661.98276   -3978.5005    788.70002    14695.258   -19467.431      305.057    1193.3814    1.0107861        0.251     -0.05928      0.04494     -0.03012 
  503000   -3349.2353    641.19015   -3990.4254    731.36332    14739.434   -19465.164    295.47529   -299.00312    1.0181072       0.2515     -0.05892      0.04491     -0.03018 
  504000   -3423.1288    656.52167   -4079.6504    825.40555    14557.816   -19467.289     302.5404    837.55095    1.0156393        0.252     -0.05856      0.04488     -0.03024 
  505000   -3425.9816    658.94467   -4084.9262    770.94673    14607.483   -19467.896    303.65698   -487.66733    1.0058021       0.2525      -0.0582      0.04485      -0.0303 
  506000   -3477.4448    628.25865   -4105.7034    807.02135    14551.278   -19469.058    289.51615    514.89239    1.0203216        0.253     -0.05784      0.04482     -0.03036 
  507000   -3405.8635    643.62806   -4049.4915    714.75704    14695.956   -19463.933    296.59873   -1577.6634    1.0001255       0.2535     -0.05748      0.04479     -0.03042 
  508000   -3333.4373    655.20393   -3988.6412    762.84313    14709.778   -19465.972    301.93316    278.09615    1.0111727        0.254     -0.05712      0.04476     -0.03048 
  509000   -3379.9047    625.20898   -4005.1137    765.07798    14693.335   -19465.517    288.11079     351.7387    1.0210482       0.2545     -0.05676      0.04473     -0.03054 
  510000   -3360.7869    641.40697   -4002.1939    733.50636    14724.639   -19464.641     295.5752   -552.37003   0.98017157        0.255      -0.0564       0.0447      -0.0306 
  511000   -3369.2273    644.82838   -4014.0556    781.01845    14666.187   -19465.243    297.15187    422.58466    1.0085982       0.2555     -0.05604      0.04467     -0.03066 
  512000   -3387.5253    662.54756   -4050.0729    754.18848    14660.767   -19467.284    305.31727   -478.86877    1.0103612        0.256     -0.05568      0.04464     -0.03072 
  513000   -3345.0031    641.00987    -3986.013    797.93846    14674.166   -19463.596    295.39221     1087.549    1.0142762       0.2565     -0.05532      0.04461     -0.03078 
  514000   -3370.5941    655.80504   -4026.3992    726.63335    14708.919   -19464.696    302.21016   -280.09154    1.0280472        0.257     -0.05496      0.04458     -0.03084 
  515000   -3422.5139    662.07766   -4084.5916    763.51189    14615.929   -19467.299    305.10074   -711.72763    1.0171174       0.2575      -0.0546      0.04455      -0.0309 
  516000   -3387.2216     627.2709   -4014.4925    728.02952    14719.669   -19466.233    289.06097   -1156.8824   0.98318584        0.258     -0.05424      0.04452     -0.03096 
  517000   -3364.4456    654.58749   -4019.0331    747.33654    14695.961   -19466.558    301.64909   -435.26591   0.99246673       0.2585     -0.05388      0.04449     -0.03102 
  518000   -3386.5437    656.58308   -4043.1267    717.13334    14702.352   -19466.054     302.5687   -1376.8775   0.98169131        0.259     -0.05352      0.04446     -0.03108 
  519000   -3396.8372    642.48218   -4039.3194    752.14413    14670.275   -19464.145    296.07068   -469.02352    1.0044429       0.2595     -0.05316      0.04443     -0.03114 
  520000   -3374.8291    619.94362   -3994.7727    768.53439    14697.216   -19464.304    285.68439      262.512    1.0106884         0.26      -0.0528       0.0444      -0.0312 
  521000   -3377.2722    665.85072   -4043.1229    834.73309    14581.206   -19464.771    306.83945    1733.2565    1.0209512       0.2605     -0.05244      0.04437     -0.03126 
  522000   -3319.5636     654.7693   -3974.3329    746.78775    14737.964   -19464.343    301.73287   -67.768511   0.99675046        0.261     -0.05208      0.04434     -0.03132 
  523000   -3393.8628    653.78732   -4047.6501    752.91147    14659.369   -19464.293    301.28035   -51.370313    1.0234457       0.2615     -0.05172      0.04431     -0.03138 
  524000   -3371.4178    674.09169   -4045.5095    825.78693    14591.737   -19467.089    310.63708     1531.832    1.0185223        0.262     -0.05136      0.04428     -0.03144 
  525000   -3311.3254    682.08208   -3993.4075    767.69943    14700.723   -19466.874    314.31924    733.26903   0.99808081       0.2625       -0.051      0.04425      -0.0315 
  526000   -3379.5393    659.14222   -4038.6815    760.92461    14659.564   -19464.061    303.74802   -185.89372    1.0061041        0.263     -0.05064      0.04422     -0.03156 
  527000   -3405.7625    626.43751      -4032.2    751.60101    14676.519   -19463.733    288.67693   -52.234494    1.0071303       0.2635     -0.05028      0.04419     -0.03162 
  528000   -3365.5449    651.71068   -4017.2555      797.071    14645.547   -19464.663    300.32339    1013.9399    1.0074917        0.264     -0.04992      0.04416     -0.03168 
  529000   -3398.3902    649.51011   -4047.9003    776.56217    14638.441    -19465.87    299.30932    -62.71204   0.99365706       0.2645     -0.04956      0.04413     -0.03174 
  530000   -3405.9056    622.77692   -4028.6825    766.87972    14664.648   -19464.066    286.99004    -102.5859    1.0081962        0.265      -0.0492       0.0441      -0.0318 
  531000   -3248.3317    679.25767   -3927.5893      769.373    14764.859   -19465.692    313.01768    1024.6616    1.0049674       0.2655     -0.04884      0.04407     -0.03186 
  532000   -3369.7254    653.20429   -4022.9297    761.37749    14678.393   -19466.506    301.01168    435.20117     1.019077        0.266     -0.04848      0.04404     -0.03192 
  533000   -3323.0967    682.25811   -4005.3548    746.48548    14706.117   -19464.644    314.40035   -55.373968     1.016313       0.2665     -0.04812      0.04401     -0.03198 
  534000   -3394.1498    649.55788   -4043.7077    797.57389     14619.96   -19467.207    299.33133    658.19668    1.0179939        0.267     -0.04776      0.04398     -0.03204 
  535000   -3332.5699    654.48787   -3987.0578    766.19675    14704.896   -19463.037    301.60318    86.741819   0.99721006       0.2675      -0.0474      0.04395      -0.0321 
  536000    -3373.936    633.91804    -4007.854    752.92888    14699.496   -19465.541    292.12413    173.24091    1.0218407        0.268     -0.04704      0.04392     -0.03216 
  537000   -3308.6437    650.34594   -3958.9896    741.48488    14758.556   -19465.062    299.69449   -118.04277   0.99550751       0.2685     -0.04668      0.04389     -0.03222 
  538000   -3343.7797    646.73479   -3990.5145    785.11636    14686.531    -19466.26    298.03039    644.72449   0.99926562        0.269     -0.04632      0.04386     -0.03228 
  539000   -3348.5366    673.13272   -4021.6693    829.57123    14609.459   -19464.096    310.19516    1925.1475    1.0234904       0.2695     -0.04596      0.04383     -0.03234 
  540000   -3414.6911    611.25147   -4025.9426    752.59576    14679.149   -19462.433    281.67885   -424.77174   0.99708707         0.27      -0.0456       0.0438      -0.0324 
  541000   -3348.3731    659.90246   -4008.2755     719.2723    14732.264   -19465.565    304.09835   -1209.0298   0.99999716       0.2705     -0.04524      0.04377     -0.03246 
  542000   -3339.4044    621.04128   -3960.4457    722.14619    14776.135   -19463.684    286.19022   -369.80734    1.0145313        0.271     -0.04488      0.04374     -0.03252 
  543000   -3301.3568    689.17047   -3990.5273    713.96347    14755.801   -19466.118    317.58573   -479.49978    1.0122304       0.2715     -0.04452      0.04371     -0.03258 
  544000   -3343.7404    643.71408   -3987.4545    672.85182    14797.764   -19464.214    296.63837   -2011.8185   0.98662616        0.272     -0.04416      0.04368     -0.03264 
  545000   -3415.6063    636.08536   -4051.6917    765.12401    14644.273   -19465.102    293.12288   -780.31351   0.98271373       0.2725      -0.0438      0.04365      -0.0327 
  546000   -3405.9626    610.02349   -4015.9861    758.60349    14685.685   -19465.102    281.11297   -403.33623   0.98879346        0.273     -0.04344      0.04362     -0.03276 
  547000   -3334.6026    670.94057   -4005.5432    767.66808     14685.94   -19464.916    309.18497    49.684336   0.98119124       0.2735     -0.04308      0.04359     -0.03282 
  548000   -3361.5622    651.74048   -4013.3027    788.04786    14659.028   -19465.536    300.33712   -27.880145   0.97603391        0.274     -0.04272      0.04356     -0.03288 
  549000   -3435.7976    607.58589   -4043.3834    810.60625    14609.887   -19467.403    279.98966    555.33796    1.0010411       0.2745     -0.04236      0.04353     -0.03294 
  550000   -3350.3303    635.34555   -3985.6758    776.56992    14695.277   -19463.549    292.78196    442.16495    0.9898121        0.275       -0.042       0.0435       -0.033 
  551000   -3362.2813    658.06725   -4020.3486    777.06433    14663.385   -19465.826    303.25265    1160.3695    1.0376537       0.2755     -0.04164      0.04347     -0.03306 
  552000   -3406.6463    637.13343   -4043.7797    736.42237    14681.479   -19465.069    293.60585   -325.11577    1.0357744        0.276     -0.04128      0.04344     -0.03312 
  553000   -3347.5406    673.53302   -4021.0737    803.94827    14635.518   -19465.253    310.37963    816.15757    1.0013964       0.2765     -0.04092      0.04341     -0.03318 
  554000   -3345.8282    639.54603   -3985.3742    771.23249    14702.952   -19464.078    294.71764    906.42684    1.0188696        0.277     -0.04056      0.04338     -0.03324 
  555000   -3383.7535    680.53681   -4064.2903     742.1237    14656.596    -19467.48    313.60714   -140.78575    1.0280758       0.2775      -0.0402      0.04335      -0.0333 
  556000   -3314.2486    659.08841    -3973.337    694.75672    14790.692   -19465.348    303.72322   -971.88022    1.0231084        0.278     -0.03984      0.04332     -0.03336 
  557000   -3332.5887    669.68989   -4002.2786    723.97401     14735.64   -19465.489    308.60863   -687.40495   0.99906338       0.2785     -0.03948      0.04329     -0.03342 
  558000   -3378.1126     664.4119   -4042.5245    794.63263    14620.018   -19463.084    306.17641    1026.9331     1.026215        0.279     -0.03912      0.04326     -0.03348 
  559000    -3366.509    633.61052   -4000.1195    807.08178    14655.627   -19465.616    291.98242    1324.0717    1.0201652       0.2795     -0.03876      0.04323     -0.03354 
  560000   -3446.1134     601.0702   -4047.1836    770.57432    14642.259    -19464.16    276.98708    -196.2397    1.0155233         0.28      -0.0384       0.0432      -0.0336 
  561000   -3380.7227    647.73471   -4028.4574    736.33253    14694.001   -19462.396    298.49117      67.1341    1.0420006       0.2805     -0.03804      0.04317     -0.03366 
  562000   -3374.8147    658.78204   -4033.5967    811.10977     14616.89   -19465.886    303.58203    1151.4597    1.0165114        0.281     -0.03768      0.04314     -0.03372 
  563000   -3375.8745    667.01155    -4042.886    775.29846    14641.752   -19464.827    307.37438   -162.71533    1.0074989       0.2815     -0.03732      0.04311     -0.03378 
  564000   -3292.1994    658.94831   -3951.1477    730.19563    14780.485   -19466.364    303.65866   -281.16333   0.99908659        0.282     -0.03696      0.04308     -0.03384 
  565000   -3366.3969     662.7534   -4029.1503    788.44463    14646.479   -19467.386    305.41213    829.26419    1.0181955       0.2825      -0.0366      0.04305      -0.0339 
  566000   -3355.5951     654.6006   -4010.1957    769.41221    14681.581    -19465.31    301.65513    466.48482    1.0179007        0.283     -0.03624      0.04302     -0.03396 
  567000   -3426.2092    614.52799   -4040.7372    804.54705    14615.274    -19463.75    283.18874    775.56789    1.0169475       0.2835     -0.03588      0.04299     -0.03402 
  568000   -3351.5785    672.64338   -4024.2219    791.37173    14646.914   -19466.199    309.96966    365.47928    0.9999011        0.284     -0.03552      0.04296     -0.03408 
  569000   -3284.2018    698.52542   -3982.7273    782.96475    14693.642   -19462.296    321.89671    498.43013   0.98588513       0.2845     -0.03516      0.04293     -0.03414 
  570000   -3360.2308    637.76869   -3997.9994    698.68762    14764.044   -19464.873     293.8986   -1132.6782   0.99539847        0.285      -0.0348       0.0429      -0.0342 
  571000   -3279.0375    665.44937   -3944.4869     758.9533    14756.589   -19464.885    306.65449    680.83075    1.0121037       0.2855     -0.03444      0.04287     -0.03426 
  572000   -3391.1748    661.52926    -4052.704     798.8395    14609.124   -19464.378    304.84802    1086.9972    1.0430577        0.286     -0.03408      0.04284     -0.03432 
  573000   -3320.7408    657.27475   -3978.0156    730.25915    14755.195   -19467.648    302.88744   -151.31653    1.0050847       0.2865     -0.03372      0.04281     -0.03438 
  574000   -3406.4854    664.26569   -4070.7511    758.36303    14634.955     -19467.9    306.10903   -372.81291     1.013745        0.287     -0.03336      0.04278     -0.03444 
  575000   -3312.8657    649.96457   -3962.8303    782.31285    14717.368   -19467.631    299.51874    1079.7618    1.0286754       0.2875       -0.033      0.04275      -0.0345 
  576000   -3448.2513    630.29558   -4078.5469    776.68822    14605.928   -19464.335    290.45481    -3.477917    1.0201096        0.288     -0.03264      0.04272     -0.03456 
  577000   -3375.1233    651.77162   -4026.8949    801.79408    14630.422   -19463.951    300.35147    1339.8243    1.0211385       0.2885     -0.03228      0.04269     -0.03462 
  578000   -3342.9101     663.6757   -4006.5858    744.45522     14711.01   -19465.455    305.83715   -290.32885    1.0071686        0.289     -0.03192      0.04266     -0.03468 
  579000   -3347.5132    636.39033   -3983.9035    784.88703    14692.453   -19465.798    293.26342    624.30195    1.0087698       0.2895     -0.03156      0.04263     -0.03474 
  580000   -3365.9369    636.03718   -4001.9741    742.08726    14719.114   -19466.115    293.10068   -360.48439   0.99104261         0.29      -0.0312       0.0426      -0.0348 
  581000   -3276.6705    667.62737   -3944.2979    748.48297    14769.561   -19465.534    307.65817     450.5143    1.0056241       0.2905     -0.03084      0.04257     -0.03486 
  582000   -3343.2724    685.07857   -4028.3509     790.1992    14646.377   -19467.173    315.70008    327.28376     1.001707        0.291     -0.03048      0.04254     -0.03492 
  583000    -3393.572    622.99868   -4016.5707    737.92344    14702.873   -19461.881    287.09224   -626.63474    1.0039824       0.2915     -0.03012      0.04251     -0.03498 
  584000   -3404.7324    621.18653   -4025.9189    728.04772    14704.603     -19463.2    286.25715   -896.00731   0.99676226        0.292     -0.02976      0.04248     -0.03504 
  585000   -3351.7303    663.67254   -4015.4029    794.45704    14651.412   -19466.586    305.83569    1117.1465      1.03446       0.2925      -0.0294      0.04245      -0.0351 
  586000   -3289.8039    665.33379   -3955.1377    659.85218     14842.67   -19461.517    306.60124   -1484.2163    1.0176989        0.293     -0.02904      0.04242     -0.03516 
  587000   -3360.9765    660.40553    -4021.382    745.67245    14695.957   -19465.602    304.33018   -726.57478   0.99206388       0.2935     -0.02868      0.04239     -0.03522 
  588000   -3389.4799    655.10101   -4044.5809     758.6108    14657.749   -19465.517    301.88573   -55.739606    1.0004661        0.294     -0.02832      0.04236     -0.03528 
  589000   -3410.4271    626.83762   -4037.2647    780.55007    14645.522   -19467.178    288.86131    102.60369   0.98564761       0.2945     -0.02796      0.04233     -0.03534 
  590000   -3393.6045     676.4215    -4070.026    819.45243    14575.207    -19467.58    311.71071    1191.4963    1.0253292        0.295      -0.0276       0.0423      -0.0354 
  591000   -3390.4306    656.26614   -4046.6967    767.93276    14646.506    -19464.24    302.42265   -283.57315    1.0055141       0.2955     -0.02724      0.04227     -0.03546 
  592000   -3385.7533    654.01917   -4039.7725    767.98072    14651.559   -19464.897     301.3872    270.96442    1.0188697        0.296     -0.02688      0.04224     -0.03552 
  593000   -3343.9668    695.61031   -4039.5771    818.00071    14605.538   -19466.345    320.55336    1068.4893    1.0070955       0.2965     -0.02652      0.04221     -0.03558 
  594000    -3335.255    630.64463   -3965.8996     751.7831    14743.592   -19465.075    290.61567    303.02295    1.0090017        0.297     -0.02616      0.04218     -0.03564 
  595000   -3386.7788    619.45833   -4006.2371    713.20354    14739.851    -19463.67    285.46076    -846.0768    1.0161292       0.2975      -0.0258      0.04215      -0.0357 
  596000   -3421.8935    633.03299   -4054.9265    725.08007    14682.693   -19466.432    291.71628   -655.59165    1.0197149        0.298     -0.02544      0.04212     -0.03576 
  597000   -3334.3491    657.96826   -3992.3174    736.65277    14733.937    -19464.79    303.20703    2.4120426    1.0207314       0.2985     -0.02508      0.04209     -0.03582 
  598000   -3348.7196    665.91218   -4014.6318    744.77741    14702.442    -19465.79    306.86777   -676.73117    0.9912191        0.299     -0.02472      0.04206     -0.03588 
  599000   -3341.2031    673.01469   -4014.2178    741.18589    14705.084   -19465.807    310.14077   -446.04761    1.0038225       0.2995     -0.02436      0.04203     -0.03594 
  600000   -3331.5872    707.63303   -4039.2202    773.82013     14646.75   -19463.136    326.09371    586.28603    1.0097357          0.3       -0.024        0.042       -0.036 
  601000   -3401.0762    643.14833   -4044.2246    825.99257     14591.56   -19466.477    296.37766    1003.9911    1.0217123       0.3005     -0.02364      0.04197     -0.03606 
  602000   -3328.6074     674.9356    -4003.543    754.49071    14700.319   -19463.939    311.02597   -448.56543   0.99422135        0.301     -0.02328      0.04194     -0.03612 
  603000   -3356.8295     630.9684   -3987.7979    768.29616    14702.045   -19462.517    290.76487    211.51528   0.99002363       0.3015     -0.02292      0.04191     -0.03618 
  604000   -3425.4254    623.45902   -4048.8844    763.51564    14648.601   -19464.294    287.30437   -221.62389    1.0015194        0.302     -0.02256      0.04188     -0.03624 
  605000   -3315.4759    676.41925   -3991.8952    718.09763    14752.796   -19465.746    311.70967   -245.13176    1.0234949       0.3025      -0.0222      0.04185      -0.0363 
  606000   -3353.9438    661.17036   -4015.1141    782.58183    14663.954   -19465.408    304.68263    800.42772    1.0167366        0.303     -0.02184      0.04182     -0.03636 
  607000   -3411.7688    651.98231   -4063.7511    756.41021    14642.652    -19467.39    300.44856    102.63059    1.0285422       0.3035     -0.02148      0.04179     -0.03642 
  608000   -3350.6277     670.4594   -4021.0871    764.58199     14675.26   -19465.314    308.96324    394.52053    1.0169174        0.304     -0.02112      0.04176     -0.03648 
  609000   -3346.1002    628.67142   -3974.7716    703.68353    14785.584   -19467.355    289.70636   -1000.1626    1.0002535       0.3045     -0.02076      0.04173     -0.03654 
  610000   -3425.3071    586.80259   -4012.1097    740.64308     14709.48   -19464.705    270.41224   -403.31267    1.0030326        0.305      -0.0204       0.0417      -0.0366 
  611000    -3347.822    647.46217   -3995.2842    781.36925    14683.297   -19464.186    298.36558    857.92055    1.0071482       0.3055     -0.02004      0.04167     -0.03666 
  612000    -3329.883    650.29948   -3980.1824    786.17154    14696.424   -19466.065    299.67308    1071.5552    1.0169873        0.306     -0.01968      0.04164     -0.03672 
  613000    -3325.222    666.86794     -3992.09    778.89282     14689.48   -19463.305    307.30821    494.50037   0.99955072       0.3065     -0.01932      0.04161     -0.03678 
  614000   -3315.2715    670.70629   -3985.9778    715.57581    14761.425   -19465.699    309.07701   -801.74244   0.99434311        0.307     -0.01896      0.04158     -0.03684 
  615000   -3376.8637    641.35655   -4018.2203     684.0692    14760.892   -19466.683    295.55196   -1280.8957    1.0148731       0.3075      -0.0186      0.04155      -0.0369 
  616000   -3388.4306    646.84292   -4035.2735    749.37558    14678.054   -19467.365    298.08021   -546.82969    1.0119433        0.308     -0.01824      0.04152     -0.03696 
  617000   -3301.6393    678.93081   -3980.5701    749.02897     14731.49   -19464.425    312.86706    472.99965    1.0255517       0.3085     -0.01788      0.04149     -0.03702 
  618000   -3338.6969    651.33298   -3990.0299    771.12077    14701.839   -19465.134    300.14934    656.75639    1.0103003        0.309     -0.01752      0.04146     -0.03708 
  619000   -3345.7486    645.88312   -3991.6317    716.59964    14751.803    -19464.48    297.63791   -528.39592    1.0125616       0.3095     -0.01716      0.04143     -0.03714 
  620000   -3347.5899    663.67222   -4011.2621    777.89053    14671.099   -19464.115    305.83554    826.51571    1.0241282         0.31      -0.0168       0.0414      -0.0372 
  621000   -3347.3922    636.36901   -3983.7612    778.98232    14696.922    -19463.13    293.25359    995.78612    1.0133936       0.3105     -0.01644      0.04137     -0.03726 
  622000   -3328.0095    684.35105   -4012.3605    714.41989    14734.859    -19464.77    315.36483   -585.82821   0.99659007        0.311     -0.01608      0.04134     -0.03732 
  623000   -3352.5911     632.2071   -3984.7981    770.79593    14707.102   -19466.571    291.33569    85.349259   0.98977093       0.3115     -0.01572      0.04131     -0.03738 
  624000   -3337.4007    659.17666   -3996.5773    713.46985    14748.379   -19462.142    303.76388   -803.01151    1.0015638        0.312     -0.01536      0.04128     -0.03744 
  625000   -3395.9885    599.45028   -3995.4387    668.07611    14798.507   -19465.329    276.24059   -1690.6367   0.99866571       0.3125       -0.015      0.04125      -0.0375 
  626000   -3353.1601    669.38567   -4022.5458    792.42449    14646.815   -19463.867    308.46844    916.87332    1.0079697        0.313     -0.01464      0.04122     -0.03756 
  627000    -3308.914     680.5313   -3989.4453    771.34498    14698.486    -19463.72     313.6046   -20.576298   0.98614586       0.3135     -0.01428      0.04119     -0.03762 
  628000   -3358.1671    642.76936   -4000.9365     783.2138    14676.368   -19463.703    296.20302    373.56942   0.99040893        0.314     -0.01392      0.04116     -0.03768 
  629000   -3357.3318    664.28818     -4021.62    772.44211    14665.667   -19463.104     306.1194    483.57408    1.0002178       0.3145     -0.01356      0.04113     -0.03774 
  630000   -3384.1924    661.43673   -4045.6291    734.70038    14682.551   -19465.751    304.80538   -249.17657    1.0210888        0.315      -0.0132       0.0411      -0.0378 
  631000   -3354.8963    669.97668    -4024.873    814.63188    14625.783   -19468.035    308.74079    883.30975   0.99563949       0.3155     -0.01284      0.04107     -0.03786 
  632000   -3316.2969    666.78776   -3983.0847    809.17268    14670.268    -19466.59    307.27126    1521.1851    1.0127047        0.316     -0.01248      0.04104     -0.03792 
  633000   -3384.0617    648.90901   -4032.9708    714.13514    14712.916   -19463.167    299.03232   -948.21575    1.0050507       0.3165     -0.01212      0.04101     -0.03798 
  634000     -3340.91    643.07029   -3983.9803    735.95639    14742.461   -19465.336     296.3417   -144.86541   0.99923924        0.317     -0.01176      0.04098     -0.03804 
  635000   -3385.8878    631.38206   -4017.2698    785.73008    14657.722   -19465.263    290.95549     401.4989    1.0098327       0.3175      -0.0114      0.04095      -0.0381 
  636000   -3367.0931     677.7091   -4044.8022    764.49827    14650.743   -19464.347    312.30406   -6.2365221    1.0146088        0.318     -0.01104      0.04092     -0.03816 
  637000   -3419.6254    630.46752   -4050.0929    758.96867    14652.988   -19465.611    290.53405   -333.20037    1.0041245       0.3185     -0.01068      0.04089     -0.03822 
  638000   -3412.7862    625.22868   -4038.0149    766.62722    14657.743   -19465.524    288.11987   -247.93105   0.99991717        0.319     -0.01032      0.04086     -0.03828 
  639000   -3381.5806    678.13013   -4059.7108    788.70037    14612.967    -19464.62    312.49809    166.39553    1.0027668       0.3195     -0.00996      0.04083     -0.03834 
  640000   -3403.1243    660.96162   -4064.0859    820.93692    14575.882   -19464.932    304.58644    792.48654    1.0153543         0.32      -0.0096       0.0408      -0.0384 
  641000   -3346.4368    655.01926    -4001.456    777.97109    14678.949   -19463.545    301.84806    953.48284    1.0241015       0.3205     -0.00924      0.04077     -0.03846 
  642000   -3415.7932    639.70636   -4055.4995    770.80099    14636.363   -19465.396    294.79152   -112.15452    1.0094464        0.321     -0.00888      0.04074     -0.03852 
  643000   -3382.8487    666.15041   -4048.9991    756.10591    14655.943   -19464.637    306.97755   -319.33409    1.0049942       0.3215     -0.00852      0.04071     -0.03858 
  644000   -3357.7327    642.35235    -4000.085    753.29283    14706.131   -19464.057    296.01086   -390.32087   0.98831204        0.322     -0.00816      0.04068     -0.03864 
  645000   -3418.1015    657.01195   -4075.1134    789.33083    14598.176   -19466.812    302.76634    550.93563    1.0230732       0.3225      -0.0078      0.04065      -0.0387 
  646000   -3334.8943    650.63057   -3985.5248     760.8104    14712.172   -19463.914    299.82565    435.63916    1.0141985        0.323     -0.00744      0.04062     -0.03876 
  647000   -3415.5961    616.09026   -4031.6863    703.09897    14725.763   -19464.342    283.90867   -1450.7157    1.0161839       0.3235     -0.00708      0.04059     -0.03882 
  648000   -3394.1624    649.74717   -4043.9096    765.62891    14654.294   -19467.304    299.41856    24.994491     1.007828        0.324     -0.00672      0.04056     -0.03888 
  649000     -3335.36    665.46685   -4000.8268    717.33478    14738.457   -19463.849    306.66255    -630.0973   0.99207154       0.3245     -0.00636      0.04053     -0.03894 
  650000   -3323.2071    679.89116   -4003.0983    783.79171    14672.991   -19463.762    313.30961    1097.1269    1.0271146        0.325       -0.006       0.0405       -0.039 
  651000   -3387.1249    643.90019   -4031.0251    717.11633    14713.778   -19466.673    296.72414   -1037.4402    1.0125413       0.3255     -0.00564      0.04047     -0.03906 
  652000   -3364.1726    666.81451   -4030.9871    790.72284    14637.083    -19464.11    307.28359    655.40426    1.0094266        0.326     -0.00528      0.04044     -0.03912 
  653000   -3395.5159      645.687   -4041.2029    777.56508    14643.987   -19465.975    297.54754    585.10446    1.0198793       0.3265     -0.00492      0.04041     -0.03918 
  654000   -3372.5257    665.22016   -4037.7458    757.83967    14664.943    -19464.88    306.54887    374.78039    1.0233082        0.327     -0.00456      0.04038     -0.03924 
  655000   -3376.4817     661.4036   -4037.8853    727.86006    14697.444   -19467.133    304.79011   -792.29555    1.0090418       0.3275      -0.0042      0.04035      -0.0393 
  656000    -3378.371    661.63868   -4040.0097    781.76946     14640.02   -19465.235    304.89844     595.9235     1.034957        0.328     -0.00384      0.04032     -0.03936 
  657000   -3363.3151    645.59743   -4008.9125      725.105    14727.885   -19465.007    297.50626   -698.97557   0.98591727       0.3285     -0.00348      0.04029     -0.03942 
  658000   -3338.9397    654.67656   -3993.6162    717.46782    14751.229   -19465.701    301.69014   -527.26826    1.0035831        0.329     -0.00312      0.04026     -0.03948 
  659000   -3399.4066    632.71297   -4032.1196    730.09358    14700.185   -19465.467    291.56881   -682.59206    1.0053146       0.3295     -0.00276      0.04023     -0.03954 
  660000   -3360.1891    658.29469   -4018.4838    743.51062    14698.863   -19464.979    303.35745    110.92307    1.0154651         0.33      -0.0024       0.0402      -0.0396 
  661000   -3403.5841     636.9143   -4040.4984    759.00405    14662.477   -19464.837    293.50487   -374.01907   0.99585692       0.3305     -0.00204      0.04017     -0.03966 
  662000   -3341.6557     674.6741   -4016.3298    706.73851    14738.615   -19464.991    310.90546   -1278.1305    0.9923379        0.331     -0.00168      0.04014     -0.03972 
  663000   -3269.0756    682.91619   -3951.9918    732.73508    14776.255   -19466.261    314.70361   -130.48346    1.0009032       0.3315     -0.00132      0.04011     -0.03978 
  664000   -3301.8406    664.19578   -3966.0363    716.11171    14777.433   -19464.547    306.07681   -467.46182   0.98710709        0.332     -0.00096      0.04008     -0.03984 
  665000   -3362.0768    669.35869   -4031.4355    739.92635    14689.655   -19466.082      308.456   -417.78927    1.0051284       0.3325      -0.0006      0.04005      -0.0399 
  666000   -3369.0963    616.59183   -3985.6882    647.83769    14825.748   -19463.033    284.13981   -2094.4644    1.0050415        0.333     -0.00024      0.04002     -0.03996 
  667000   -3330.2375    646.79425   -3977.0317    724.96822    14757.083   -19463.719    298.05779   -144.10681    1.0135391       0.3335      0.00012      0.03999     -0.04002 
  668000   -3393.6036    646.42963   -4040.0333    759.38933    14663.736    -19466.26    297.88976   -270.95772     1.001068        0.334      0.00048      0.03996     -0.04008 
  669000   -3332.5754    665.31214   -3997.8876    686.12632    14776.248   -19464.559    306.59126   -1306.0794    1.0129503       0.3345      0.00084      0.03993     -0.04014 
  670000   -3368.9894    650.28977   -4019.2792    717.94709    14725.817   -19466.771     299.6686   -717.25167    1.0113125        0.335       0.0012       0.0399      -0.0402 
  671000   -3379.1686     698.0356   -4077.2042    768.07395    14615.837   -19466.394    321.67099    64.512438     1.018797       0.3355      0.00156      0.03987     -0.04026 
  672000   -3399.1032     642.6798    -4041.783     770.6008    14646.753   -19462.104    296.16175    291.10368    1.0222861        0.336      0.00192      0.03984     -0.04032 
  673000   -3377.7026    639.85261   -4017.5552    748.54612    14696.639   -19466.546    294.85892   -201.16057     0.997082       0.3365      0.00228      0.03981     -0.04038 
  674000    -3282.867    679.15916   -3962.0261    767.99111    14729.469   -19463.705    312.97229    398.37837    1.0054687        0.337      0.00264      0.03978     -0.04044 
  675000   -3383.5337     629.7731   -4013.3068    742.52035    14702.607   -19462.832    290.21404   -676.67078    0.9918685       0.3375        0.003      0.03975      -0.0405 
  676000    -3415.135    654.11376   -4069.2488    820.88256    14568.458   -19463.358    301.43079    858.50424    1.0159532        0.338      0.00336      0.03972     -0.04056 
  677000   -3383.0082     634.9708    -4017.979    758.31651    14684.066   -19463.408    292.60926    199.02179    1.0206832       0.3385      0.00372      0.03969     -0.04062 
  678000   -3359.0651    635.99848   -3995.0636    764.49478    14700.324   -19463.828    293.08284   -151.19006    1.0016161        0.339      0.00408      0.03966     -0.04068 
  679000   -3425.2366    636.00487   -4061.2415    706.33813    14697.273    -19467.46    293.08579   -1609.0753   0.98601374       0.3395      0.00444      0.03963     -0.04074 
  680000   -3358.8657    671.77792   -4030.6436    819.44376    14615.236    -19467.68    309.57084    1748.6883    1.0345868         0.34       0.0048       0.0396      -0.0408 
  681000   -3400.9901     622.5429    -4023.533    699.13373    14739.432   -19465.501     286.8822   -1384.1539    1.0118023       0.3405      0.00516      0.03957     -0.04086 
  682000   -3314.7268    664.00534   -3978.7321    746.07075    14734.696   -19463.342    305.98905   -118.53997   0.99369142        0.341      0.00552      0.03954     -0.04092 
  683000   -3345.1934    665.42561    -4010.619    765.27676    14686.634   -19465.481    306.64355   -95.950849    1.0020878       0.3415      0.00588      0.03951     -0.04098 
  684000   -3372.5963     653.1829   -4025.7792     731.7883     14707.13   -19467.739    301.00182   -981.80923   0.98634877        0.342      0.00624      0.03948     -0.04104 
  685000   -3414.5707    621.46843   -4036.0391    788.42076    14634.434   -19464.044    286.38706    364.12219    1.0040525       0.3425       0.0066      0.03945      -0.0411 
  686000   -3350.1181    666.52101   -4016.6391    772.51602    14672.603    -19463.54    307.14833   -172.38701   0.98129051        0.343      0.00696      0.03942     -0.04116 
  687000   -3429.8763    636.41649   -4066.2928    837.32481    14558.421   -19465.163    293.27547     1034.676    1.0058635       0.3435      0.00732      0.03939     -0.04122 
  688000   -3368.2173    655.29558   -4023.5129    824.53266    14613.233   -19466.413     301.9754    1276.7117    1.0058072        0.344      0.00768      0.03936     -0.04128 
  689000   -3410.7504    629.81727   -4040.5676     767.4602    14651.038   -19461.748     290.2344    310.77851    1.0238041       0.3445      0.00804      0.03933     -0.04134 
  690000   -3345.9869    633.42418   -3979.4111    733.19492    14749.757   -19465.857    291.89654   -202.71395    1.0032858        0.345       0.0084       0.0393      -0.0414 
  691000   -3383.7761    639.05713   -4022.8332    791.95662    14648.443   -19466.548    294.49234     682.1945    1.0089341       0.3455      0.00876      0.03927     -0.04146 
  692000   -3387.8018    653.81503   -4041.6168    784.91306     14636.24    -19466.58    301.29312    330.03172    1.0038215        0.346      0.00912      0.03924     -0.04152 
  693000   -3428.5138    631.10734   -4059.6212     768.9846    14632.511   -19466.145    290.82889   -333.90653   0.99778936       0.3465      0.00948      0.03921     -0.04158 
  694000   -3353.5478    658.35198   -4011.8998    742.02162     14705.19   -19463.025    303.38385   -292.90928    1.0008159        0.347      0.00984      0.03918     -0.04164 
  695000   -3372.1905    614.48738   -3986.6779    742.86612    14727.653   -19460.666    283.17003   -333.79258   0.98639416       0.3475       0.0102      0.03915      -0.0417 
  696000   -3317.7885    621.60911   -3939.3976    710.04579    14811.885   -19464.706    286.45189   -768.51505   0.98278525        0.348      0.01056      0.03912     -0.04176 
  697000   -3378.0759    656.55301   -4034.6289     735.8618    14687.311   -19460.372    302.55485   -461.51047    1.0058371       0.3485      0.01092      0.03909     -0.04182 
  698000   -3365.0022    639.39433   -4004.3966    803.53971    14652.513   -19463.224    294.64773    805.91375    1.0066027        0.349      0.01128      0.03906     -0.04188 
  699000   -3378.1203    648.63631   -4026.7566    732.15096    14705.127   -19466.846    298.90665    -346.2157    1.0151736       0.3495      0.01164      0.03903     -0.04194 
  700000   -3393.7279     619.9654   -4013.6933    754.92577    14692.355   -19464.692    285.69443   -170.73324    1.0051549         0.35        0.012        0.039       -0.042 
  701000   -3331.0953     669.3884   -4000.4837     747.9357    14713.266   -19465.042    308.46969    60.095023   0.99987991       0.3505      0.01236      0.03897     -0.04206 
  702000   -3358.8427    662.45544   -4021.2981    781.42328    14659.984   -19465.993    305.27482    353.03569   0.99414663        0.351      0.01272      0.03894     -0.04212 
  703000   -3289.4892    675.73623   -3965.2254    688.50433    14806.548   -19463.753    311.39492   -1125.5777   0.99264727       0.3515      0.01308      0.03891     -0.04218 
  704000   -3338.3738    657.81108   -3996.1849    737.39304    14725.457    -19462.61     303.1346   -689.56379   0.98701147        0.352      0.01344      0.03888     -0.04224 
  705000   -3340.7446    684.99917   -4025.7437    850.33367    14586.703   -19465.932     315.6635    1706.2295    1.0077482       0.3525       0.0138      0.03885      -0.0423 
  706000    -3345.014    653.51054   -3998.5245     748.0637    14711.556     -19462.6    301.15281   -279.21005    0.9958368        0.353      0.01416      0.03882     -0.04236 
  707000   -3380.0636    660.05486   -4040.1184    777.36736    14643.305    -19464.77    304.16858    318.76246    1.0107662       0.3535      0.01452      0.03879     -0.04242 
  708000   -3430.5775    608.37598   -4038.9534     786.8433    14634.181   -19463.148    280.35376    209.41997    1.0060712        0.354      0.01488      0.03876     -0.04248 
  709000   -3358.6286    672.62265   -4031.2512    803.69897    14629.177   -19467.254    309.96011    570.00309    1.0064369       0.3545      0.01524      0.03873     -0.04254 
  710000   -3347.6785    662.36091   -4010.0394    726.84352    14726.934   -19467.112    305.23126   -344.58692    1.0115713        0.355       0.0156       0.0387      -0.0426 
  711000   -3349.2089    672.57993   -4021.7888    758.32856    14681.254   -19465.134    309.94042    351.54137    1.0060684       0.3555      0.01596      0.03867     -0.04266 
  712000   -3382.8588    647.95845   -4030.8173    714.16362    14717.207   -19465.498    298.59427   -1278.0669    0.9991458        0.356      0.01632      0.03864     -0.04272 
  713000    -3347.083    684.77206    -4031.855    759.30247     14668.65   -19462.926    315.55884   -93.952184     1.015298       0.3565      0.01668      0.03861     -0.04278 
  714000   -3321.7344     659.4456     -3981.18     719.2749    14758.627   -19463.703    303.88782   -328.35919    1.0134048        0.357      0.01704      0.03858     -0.04284 
  715000   -3416.5829    650.24984   -4066.8327    780.01243    14614.516   -19464.243     299.6502    157.91445    1.0286496       0.3575       0.0174      0.03855      -0.0429 
  716000   -3429.2678    621.52735   -4050.7952      717.061     14695.34   -19466.942    286.41421   -984.54837    1.0166886        0.358      0.01776      0.03852     -0.04296 
  717000   -3442.4937    639.05105   -4081.5448    794.80154    14581.509   -19461.426    294.48954    415.99351    1.0297009       0.3585      0.01812      0.03849     -0.04302 
  718000   -3311.7005     705.6341   -4017.3346    771.90207    14672.431   -19466.772    325.17255    209.10874   0.99378628        0.359      0.01848      0.03846     -0.04308 
  719000   -3359.1108    677.26908   -4036.3799     781.6222    14642.375   -19463.656    312.10129    317.73402    1.0073802       0.3595      0.01884      0.03843     -0.04314 
  720000   -3385.3414     639.2397   -4024.5811    741.67417    14692.494   -19462.891    294.57647   -311.33988    1.0271449         0.36       0.0192       0.0384      -0.0432 
  721000   -3338.3218    650.45317   -3988.7749    733.90204    14734.773   -19461.797     299.7439   -846.44325    0.9655249       0.3605      0.01956      0.03837     -0.04326 
  722000   -3406.3593    662.25062   -4068.6099     808.4184    14583.696   -19464.904    305.18044    861.74336    1.0208224        0.361      0.01992      0.03834     -0.04332 
  723000    -3333.053    643.52246   -3976.5755    760.78432    14724.905   -19465.992    296.55007    -4.978985   0.99152129       0.3615      0.02028      0.03831     -0.04338 
  724000   -3366.5346    671.65512   -4038.1897    798.29563    14624.089   -19464.162    309.51425    803.24365    1.0120448        0.362      0.02064      0.03828     -0.04344 
  725000   -3348.2354    661.46989   -4009.7053    795.30897    14657.716   -19466.208    304.82066    1236.1694    1.0186019       0.3625        0.021      0.03825      -0.0435 
  726000   -3354.2592     653.1376   -4007.3968    777.07791    14677.296   -19465.759    300.98095    810.85733    1.0182495        0.363      0.02136      0.03822     -0.04356 
  727000   -3368.4846    617.94666   -3986.4313    676.55469    14798.004   -19464.515    284.76415   -1728.4721   0.99943791       0.3635      0.02172      0.03819     -0.04362 
  728000   -3400.6308    624.60726    -4025.238    700.81244    14733.308   -19462.861    287.83351   -1152.1506    1.0013976        0.364      0.02208      0.03816     -0.04368 
  729000   -3326.9567    663.11048   -3990.0671    760.25984    14707.512   -19460.661    305.57668    268.50865    1.0134122       0.3645      0.02244      0.03813     -0.04374 
  730000   -3387.0908     662.5619   -4049.6527     753.9217    14656.529   -19464.749    305.32388   -197.56128    1.0170275        0.365       0.0228       0.0381      -0.0438 
  731000   -3320.1623    655.91643   -3976.0788    707.54659    14775.121   -19463.297     302.2615    -754.1134    1.0088182       0.3655      0.02316      0.03807     -0.04386 
  732000   -3364.9341    616.08213   -3981.0162    702.91339    14778.701   -19466.425    283.90493    -1046.137    1.0050544        0.366      0.02352      0.03804     -0.04392 
  733000   -3366.4263    678.99786   -4045.4242    769.93817    14645.992   -19465.392    312.89795    441.26189    1.0215745       0.3665      0.02388      0.03801     -0.04398 
  734000    -3368.035    661.94176   -4029.9767    774.35987    14656.759   -19465.554    305.03811     544.8407    1.0237342        0.367      0.02424      0.03798     -0.04404 
  735000   -3323.1926    685.44911   -4008.6417    738.06416    14713.071    -19464.79    315.87084   -594.23304   0.99332663       0.3675       0.0246      0.03795      -0.0441 
  736000   -3416.3379    671.85985   -4088.1978    825.52499     14549.24   -19467.711    309.60859    880.05932    1.0176216        0.368      0.02496      0.03792     -0.04416 
  737000    -3387.194    654.89551   -4042.0895    748.03155    14671.739   -19465.889    301.79103   -401.02385    1.0105624       0.3685      0.02532      0.03789     -0.04422 
  738000   -3380.0431    662.89718   -4042.9403     752.7058    14667.158   -19465.605    305.47839   -732.77672   0.99264569        0.369      0.02568      0.03786     -0.04428 
  739000   -3386.7183     643.5013   -4030.2196    773.93419    14657.811   -19465.883    296.54032    261.47983   0.98831828       0.3695      0.02604      0.03783     -0.04434 
  740000   -3456.8714    637.48047   -4094.3519     809.3221    14559.121   -19466.989    293.76578    334.56894    1.0175852         0.37       0.0264       0.0378      -0.0444 
  741000   -3319.8193      656.164   -3975.9833    764.34507    14719.365   -19464.492    302.37558    487.24338    1.0120895       0.3705      0.02676      0.03777     -0.04446 
  742000   -3400.5558    644.53152   -4045.0873    736.52952    14680.159   -19466.163    297.01507   -698.37953   0.99143508        0.371      0.02712      0.03774     -0.04452 
  743000   -3349.1529    667.13649   -4016.2894    771.97629    14669.036   -19463.032    307.43196    352.62414    1.0032794       0.3715      0.02748      0.03771     -0.04458 
  744000   -3329.3457    665.97883   -3995.3245    807.71551    14658.183   -19464.729    306.89849    852.74277   0.99946616        0.372      0.02784      0.03768     -0.04464 
  745000    -3378.736    630.06156   -4008.7976    819.88648    14635.908   -19467.917    290.34697    1212.5369    1.0061888       0.3725       0.0282      0.03765      -0.0447 
  746000   -3359.8887    644.23571   -4004.1244    739.91498    14715.552   -19465.658    296.87875   -320.46915   0.99842059        0.373      0.02856      0.03762     -0.04476 
  747000   -3359.9739    643.90652   -4003.8805    754.03554    14702.077   -19464.385    296.72705   -77.199488   0.99600807       0.3735      0.02892      0.03759     -0.04482 
  748000   -3392.0952    642.52696   -4034.6221    803.67662    14621.701   -19463.762    296.09132    1058.7908    1.0203829        0.374      0.02928      0.03756     -0.04488 
  749000   -3285.9924    711.37515   -3997.3675    770.62714    14690.921   -19464.149    327.81816    43.514571   0.99729734       0.3745      0.02964      0.03753     -0.04494 
  750000   -3370.9265    651.21841   -4022.1449    744.61339     14692.39   -19465.077    300.09654   -742.90359    0.9957499        0.375         0.03       0.0375       -0.045 
  751000   -3426.8861    634.54071   -4061.4268    754.98866    14645.126   -19466.541    292.41107   -156.98288    1.0265176       0.3755      0.03036      0.03747     -0.04506 
  752000   -3426.0415    641.58264   -4067.6241    759.84148     14632.56    -19463.94    295.65615   -82.227765    1.0294399        0.376      0.03072      0.03744     -0.04512 
  753000   -3408.1909    631.56006   -4039.7509    772.44118    14649.518    -19466.02    291.03751   -42.201596    1.0061262       0.3765      0.03108      0.03741     -0.04518 
  754000   -3359.3835    672.44092   -4031.8244    740.08386    14685.614   -19463.624    309.87637   -218.38871    1.0208259        0.377      0.03144      0.03738     -0.04524 
  755000   -3408.1056    627.08698   -4035.1926    724.00735    14700.653   -19463.472    288.97622   -688.08237    1.0175014       0.3775       0.0318      0.03735      -0.0453 
  756000    -3285.582    682.20725   -3967.7892    740.05424    14750.637   -19464.264    314.37692    96.848301    1.0132822        0.378      0.03216      0.03732     -0.04536 
  757000   -3315.8649    667.02088   -3982.8858    744.80847    14736.348   -19467.255    307.37868    212.49781    1.0137839       0.3785      0.03252      0.03729     -0.04542 
  758000   -3374.5277    641.78808   -4016.3158     788.3915    14659.899   -19467.177    295.75083    699.51963    1.0039612        0.379      0.03288      0.03726     -0.04548 
  759000   -3385.8748    640.64337   -4026.5182    760.30461    14672.511   -19463.365    295.22332    225.68682    1.0158583       0.3795      0.03324      0.03723     -0.04554 
  760000   -3335.4766    650.62922   -3986.1059    804.45026    14670.776   -19466.399    299.82503    993.69505    1.0062544         0.38       0.0336       0.0372      -0.0456 
  761000   -3313.4613    637.19297   -3950.6543    711.19641    14798.021   -19465.079    293.63329   -653.24332   0.98764173       0.3805      0.03396      0.03717     -0.04566 
  762000   -3362.7489    657.34503    -4020.094    769.42562    14666.107   -19460.793    302.91983    327.30341    1.0241258        0.381      0.03432      0.03714     -0.04572 
  763000   -3381.9954    637.07525   -4019.0707    733.32489    14710.599   -19466.207    293.57905   -644.68628    1.0045674       0.3815      0.03468      0.03711     -0.04578 
  764000   -3331.0839    657.52807   -3988.6119    776.82869    14694.995   -19465.011    303.00418    587.44519    1.0253181        0.382      0.03504      0.03708     -0.04584 
  765000   -3364.5074    642.80958    -4007.317    772.35731    14683.872   -19466.081    296.22156    625.14067    1.0175077       0.3825       0.0354      0.03705      -0.0459 
  766000   -3367.6182     625.0812   -3992.6994    693.51864    14776.049   -19466.045    288.05191   -1041.7966    1.0099807        0.383      0.03576      0.03702     -0.04596 
  767000   -3322.4488    656.95569   -3979.4045    776.96741    14700.943   -19462.426    302.74041     266.7137   0.98832369       0.3835      0.03612      0.03699     -0.04602 
  768000   -3364.1497    653.65945   -4017.8091    700.55206    14743.041   -19465.575    301.22143    -1606.111   0.99389515        0.384      0.03648      0.03696     -0.04608 
  769000   -3343.2942    645.05602   -3988.3502      725.081    14744.994    -19461.65    297.25677    69.047871     1.023771       0.3845      0.03684      0.03693     -0.04614 
  770000   -3376.8426    681.17527   -4058.0179    726.08106    14673.984   -19463.495    313.90135   -926.06938    1.0130287        0.385       0.0372       0.0369      -0.0462 
  771000   -3398.3369     637.4514   -4035.7883    806.87416    14619.513   -19465.871    293.75238    585.23958    1.0097417       0.3855      0.03756      0.03687     -0.04626 
  772000   -3369.1119    626.58724   -3995.6992    772.19199    14691.031   -19463.762    288.74593    942.61097    1.0258228        0.386      0.03792      0.03684     -0.04632 
  773000   -3367.8375    640.69081   -4008.5283    722.73048     14728.57   -19463.068    295.24518   -421.35869    1.0168245       0.3865      0.03828      0.03681     -0.04638 
  774000     -3419.08    628.73516   -4047.8152    739.70396    14674.021    -19465.88    289.73574   -438.95287    1.0183606        0.387      0.03864      0.03678     -0.04644 
  775000   -3314.8236    660.49316   -3975.3168    723.13849    14761.201   -19465.129    304.37056   -189.93641     1.012613       0.3875        0.039      0.03675      -0.0465 
  776000   -3410.8894    636.67486   -4047.5642    776.03199    14636.991   -19465.986    293.39454    188.18201    1.0043143        0.388      0.03936      0.03672     -0.04656 
  777000   -3367.6981     665.9165   -4033.6146    759.99495    14670.469   -19467.574    306.86976   -46.014812    1.0051789       0.3885      0.03972      0.03669     -0.04662 
  778000    -3331.289    650.59979   -3981.8888    825.52798    14652.127   -19463.029    299.81147    1411.1511    1.0043704        0.389      0.04008      0.03666     -0.04668 
  779000   -3421.5351    658.11482   -4079.6499    791.71589    14589.336   -19464.297    303.27456    414.84588    1.0185737       0.3895      0.04044      0.03663     -0.04674 
  780000    -3385.926    648.89422   -4034.8202    719.29048    14705.836   -19463.753     299.0255   -923.27093    0.9945698         0.39       0.0408       0.0366      -0.0468 
  781000   -3429.6548    627.15984   -4056.8146    799.73462    14603.678    -19464.53    289.00979    617.97608      1.01141       0.3905      0.04116      0.03657     -0.04686 
  782000   -3358.2113    642.67448   -4000.8858    774.53171    14689.051   -19467.792     296.1593     371.6113    1.0007873        0.391      0.04152      0.03654     -0.04692 
  783000   -3364.3358    620.58321    -3984.919    705.94268    14768.338   -19464.297    285.97913   -863.27836   0.99088074       0.3915      0.04188      0.03651     -0.04698 
  784000   -3359.8053    637.22301   -3997.0283    783.34717    14680.664   -19465.489    293.64713    884.15665    1.0118885        0.392      0.04224      0.03648     -0.04704 
  785000   -3319.4464    663.07492   -3982.5213    733.81398    14745.134   -19465.711     305.5603   -424.85991    1.0021213       0.3925       0.0426      0.03645      -0.0471 
  786000    -3428.382    635.37372   -4063.7558    754.18707    14644.425    -19465.07    292.79494   -575.18927    1.0123229        0.393      0.04296      0.03642     -0.04716 
  787000   -3365.8661    641.47683   -4007.3429    786.03901     14665.41   -19464.403    295.60739    505.04119   0.99854702       0.3935      0.04332      0.03639     -0.04722 
  788000   -3285.0859    652.04623   -3937.1321    702.09144    14820.541   -19465.947    300.47802   -898.31056   0.99219426        0.394      0.04368      0.03636     -0.04728 
  789000   -3395.7076    633.18902   -4028.8966    744.78633     14685.79   -19463.051    291.78818    -570.2021   0.99358789       0.3945      0.04404      0.03633     -0.04734 
  790000   -3355.5562    646.62857   -4002.1847    727.60971    14730.547   -19464.203    297.98144   -441.73549    1.0045079        0.395       0.0444       0.0363      -0.0474 
  791000   -3396.8559    642.71045   -4039.5664    790.94289    14629.211   -19463.618    296.17587    655.37599    1.0126356       0.3955      0.04476      0.03627     -0.04746 
  792000   -3344.7563    671.58229   -4016.3386    733.97593    14711.662   -19466.186    309.48069   -462.09296    1.0150208        0.396      0.04512      0.03624     -0.04752 
  793000   -3353.3932    656.45009   -4009.8433    755.85694    14695.033   -19464.102    302.50742    188.26213    1.0090235       0.3965      0.04548      0.03621     -0.04758 
  794000   -3398.0472    635.80814   -4033.8554    750.98017    14675.864   -19465.584    292.99513   -284.39113    1.0110557        0.397      0.04584      0.03618     -0.04764 
  795000   -3363.2599     610.0126   -3973.2725    739.28411    14748.724   -19463.842    281.10795   -621.90354   0.98368255       0.3975       0.0462      0.03615      -0.0477 
  796000    -3415.787    600.67955   -4016.4666    736.06138    14707.436   -19463.701    276.80706   -213.62552    1.0163399        0.398      0.04656      0.03612     -0.04776 
  797000   -3378.9452    656.35954   -4035.3047    799.92759    14622.752   -19461.778    302.46569    709.46654    1.0083839       0.3985      0.04692      0.03609     -0.04782 
  798000   -3378.8414    626.70626   -4005.5477    765.23066    14688.655   -19463.456    288.80078     143.9821    1.0026364        0.399      0.04728      0.03606     -0.04788 
  799000   -3340.8003    670.57569    -4011.376    730.97097    14717.636   -19464.045    309.01682   -803.61957   0.98722325       0.3995      0.04764      0.03603     -0.04794 
  800000   -3338.7355    651.55424   -3990.2897    763.58095    14704.697   -19462.348     300.2513   -16.111732   0.99131316          0.4        0.048        0.036       -0.048 
  801000   -3399.4439    667.80397   -4067.2478    765.44883     14627.74   -19465.267    307.73955   -27.598176    1.0149927       0.4005      0.04836      0.03597     -0.04806 
  802000    -3426.581    617.78157   -4044.3626    697.48574     14718.99   -19464.954    284.68807   -1357.7764    1.0053528        0.401      0.04872      0.03594     -0.04812 
  803000   -3370.1666    647.61853   -4017.7852    772.35555    14672.857   -19467.056    298.43763    174.06125   0.99822973       0.4015      0.04908      0.03591     -0.04818 
  804000   -3385.5387    665.63431    -4051.173    816.92442    14594.163   -19466.289    306.73972    909.09584    1.0067441        0.402      0.04944      0.03588     -0.04824 
  805000   -3373.4984     673.9122   -4047.4106    727.62152    14686.645   -19465.996    310.55437   -860.14388    1.0040807       0.4025       0.0498      0.03585      -0.0483 
  806000   -3382.4038    655.84626   -4038.2501    753.11037    14668.541   -19464.592    302.22916   -578.89628   0.98633537        0.403      0.05016      0.03582     -0.04836 
  807000   -3325.5957    689.59064   -4015.1863    806.84393    14638.084   -19465.757    317.77935    448.34076    0.9856652       0.4035      0.05052      0.03579     -0.04842 
  808000   -3413.3964    632.63242   -4046.0288    810.20234    14604.137   -19465.518    291.53169    522.19621   0.99783624        0.404      0.05088      0.03576     -0.04848 
  809000   -3412.1697    646.34025     -4058.51    799.80322     14604.81   -19468.684    297.84857    512.75764     1.003611       0.4045      0.05124      0.03573     -0.04854 
  810000   -3360.8587    655.68014   -4016.5389    760.11696    14685.086   -19466.505    302.15261   -17.597072   0.99437613        0.405       0.0516       0.0357      -0.0486 
  811000   -3355.0545    645.65559   -4000.7101    773.76246    14686.424   -19465.961    297.53307    -293.3721   0.97962373       0.4055      0.05196      0.03567     -0.04866 
  812000   -3364.4987    648.13423   -4012.6329    708.82322    14740.206   -19465.741    298.67528   -1025.2339   0.99468898        0.406      0.05232      0.03564     -0.04872 
  813000   -3307.7368    685.87784   -3993.6146    752.11769    14714.513   -19462.875    316.06841    207.22604    1.0031638       0.4065      0.05268      0.03561     -0.04878 
  814000   -3345.0435    650.82644   -3995.8699     754.1105    14711.405   -19466.076    299.91591   -157.87149    1.0012262        0.407      0.05304      0.03558     -0.04884 
  815000   -3352.8104     663.9937   -4016.8041    742.48161    14703.939   -19467.421    305.98369   -348.64408    1.0071838       0.4075       0.0534      0.03555      -0.0489 
  816000   -3346.9184    657.44421   -4004.3626    805.51132    14650.639   -19465.434    302.96554    1085.9541     1.015349        0.408      0.05376      0.03552     -0.04896 
  817000   -3353.4462    639.64888   -3993.0951    784.43832    14681.073   -19464.661    294.76503    218.36487   0.98626943       0.4085      0.05412      0.03549     -0.04902 
  818000   -3336.1584    656.88724   -3993.0457    743.44645    14726.614   -19467.027    302.70887   -313.84797    1.0048355        0.409      0.05448      0.03546     -0.04908 
  819000   -3366.1647    644.82619   -4010.9909    736.67353    14710.548   -19461.776    297.15086   -298.99683    1.0088321       0.4095      0.05484      0.03543     -0.04914 
  820000   -3372.5764    663.52833   -4036.1047    776.10771    14650.326   -19465.877    305.76924    104.36318    1.0007965         0.41       0.0552       0.0354      -0.0492 
  821000   -3283.4872    692.29429   -3975.7815    697.25447     14784.82     -19463.2    319.02526    -1016.281    1.0034828       0.4105      0.05556      0.03537     -0.04926 
  822000   -3338.6611    639.26421   -3977.9253    754.95101    14728.522   -19466.398    294.58777    421.97161    1.0115303        0.411      0.05592      0.03534     -0.04932 
  823000   -3403.5789    643.36423   -4046.9431    779.24765    14634.467   -19463.164    296.47715    327.48174    1.0051463       0.4115      0.05628      0.03531     -0.04938 
  824000   -3386.6318    660.02788   -4046.6597    712.13831    14702.401   -19466.246    304.15615   -919.04601    1.0038284        0.412      0.05664      0.03528     -0.04944 
  825000   -3383.0081    653.41764   -4036.4258    745.83531     14680.49   -19465.387       301.11   -467.80497    1.0148556       0.4125        0.057      0.03525      -0.0495 
  826000   -3325.7062    672.11416   -3997.8203    742.93294    14719.378   -19464.342    309.72579   -543.22728   0.97737844        0.413      0.05736      0.03522     -0.04956 
  827000   -3371.3226    618.09927   -3989.4219    713.15356    14758.036    -19464.44    284.83447   -822.27283   0.99890744       0.4135      0.05772      0.03519     -0.04962 
  828000   -3366.5114    630.80153   -3997.3129    683.82688    14780.215   -19465.355    290.68797   -1526.9667   0.99251913        0.414      0.05808      0.03516     -0.04968 
  829000   -3366.6927    618.83031    -3985.523    709.37083    14762.806   -19462.453    285.17135   -1088.8341    0.9987503       0.4145      0.05844      0.03513     -0.04974 
  830000   -3445.5008    616.53804   -4062.0388    768.87815    14628.544   -19463.542    284.11502   -262.48112    1.0111326        0.415       0.0588       0.0351      -0.0498 
  831000    -3396.763    641.61929   -4038.3823    796.81643    14630.204   -19468.502    295.67304    876.37373    1.0198389       0.4155      0.05916      0.03507     -0.04986 
  832000   -3415.3211    634.49443   -4049.8155    706.69664    14703.849   -19465.487    292.38974   -1190.6428    1.0232566        0.416      0.05952      0.03504     -0.04992 
  833000   -3386.1096    660.15999   -4046.2696    716.99585    14695.918   -19464.619    304.21703   -1152.8072   0.99683093       0.4165      0.05988      0.03501     -0.04998 
  834000   -3435.5066    646.01713   -4081.5237    771.39363    14612.258   -19468.561    297.69967    97.909437    1.0199733        0.417      0.06024      0.03498     -0.05004 
  835000   -3438.8693    637.18039   -4076.0497    773.76899    14614.571   -19468.178     293.6275   -222.43168     1.000708       0.4175       0.0606      0.03495      -0.0501 
  836000   -3346.1143    679.12998   -4025.2443    757.73262    14678.242   -19465.669    312.95884   -293.89356    1.0030415        0.418      0.06096      0.03492     -0.05016 
  837000   -3369.0864    663.65083   -4032.7373    791.10242    14637.858     -19466.6    305.82569     202.6803   0.99607079       0.4185      0.06132      0.03489     -0.05022 
  838000   -3319.9719       685.32   -4005.2919    764.49702    14690.286   -19465.192    315.81134     40.58582   0.98588503        0.419      0.06168      0.03486     -0.05028 
  839000   -3427.9129    638.69338   -4066.6062    742.88778    14651.491   -19465.078    294.32471   -661.04091    1.0147589       0.4195      0.06204      0.03483     -0.05034 
  840000   -3346.1295     661.8706   -4008.0001    743.16175    14710.989   -19467.069    305.00532   -540.05166    1.0023873         0.42       0.0624       0.0348      -0.0504 
  841000   -3341.5655     644.3757   -3985.9412    742.18945    14729.226   -19463.143    296.94326    -218.2427   0.99538483       0.4205      0.06276      0.03477     -0.05046 
  842000   -3428.9184    625.70198   -4054.6204    807.07327     14602.03   -19467.239    288.33798    987.35266    1.0132324        0.421      0.06312      0.03474     -0.05052 
  843000   -3331.4855    661.54498   -3993.0305    743.66482    14721.712   -19464.879    304.85526    -321.2601   0.99230548       0.4215      0.06348      0.03471     -0.05058 
  844000   -3377.3309    662.22041   -4039.5513    785.00575    14632.211   -19462.979    305.16652    -185.9238    0.9877634        0.422      0.06384      0.03468     -0.05064 
  845000   -3341.9215    679.76084   -4021.6823    739.10549    14697.926   -19463.091    313.24955   -563.65001   0.99221519       0.4225       0.0642      0.03465      -0.0507 
  846000   -3330.2209    680.15492   -4010.3758    764.93431    14681.748   -19464.807    313.43115   -304.59506   0.97974342        0.423      0.06456      0.03462     -0.05076 
  847000   -3295.5938    687.15566   -3982.7495    795.75895    14681.654    -19465.18    316.65726    991.51575    1.0170844       0.4235      0.06492      0.03459     -0.05082 
  848000   -3399.6612    632.28478    -4031.946    803.82256    14625.333   -19466.906    291.37148    1050.3046     1.021755        0.424      0.06528      0.03456     -0.05088 
  849000   -3366.5392    644.89287    -4011.432    795.30293    14654.121   -19466.616    297.18158    948.81179   0.99800505       0.4245      0.06564      0.03453     -0.05094 
  850000   -3362.0444    642.35813   -4004.4025     733.3959    14720.882   -19463.415    296.01352   -406.83473   0.99433841        0.425        0.066       0.0345       -0.051 
  851000   -3400.5661     622.7839     -4023.35    763.53115    14676.274   -19467.003    286.99326    42.839901   0.99702646       0.4255      0.06636      0.03447     -0.05106 
  852000   -3355.9041    632.67806   -3988.5821     774.1261    14698.824   -19465.871    291.55272    634.72916    1.0204484        0.426      0.06672      0.03444     -0.05112 
  853000   -3342.9679    636.36964   -3979.3376    715.74978    14764.509   -19465.129    293.25388   -334.89006    1.0081028       0.4265      0.06708      0.03441     -0.05118 
  854000   -3323.0467    670.48766   -3993.5343    811.85864    14655.142   -19465.714    308.97626    1521.0782    1.0166428        0.427      0.06744      0.03438     -0.05124 
  855000   -3409.9317    636.80779   -4046.7395    742.01074    14671.277   -19465.908    293.45579   -955.69267    1.0071053       0.4275       0.0678      0.03435      -0.0513 
  856000   -3342.7509    652.49984   -3995.2508    742.28259    14724.943     -19467.3    300.68705   -94.095216   0.99692172        0.428      0.06816      0.03432     -0.05136 
  857000   -3416.5533    650.78068    -4067.334    802.24286    14592.896   -19468.149    299.89483    813.11504    1.0294642       0.4285      0.06852      0.03429     -0.05142 
  858000     -3451.87     615.7132   -4067.5832    757.73118    14631.596   -19461.809    283.73492    -81.88237    1.0357642        0.429      0.06888      0.03426     -0.05148 
  859000   -3405.0293    667.82917   -4072.8585    741.62286    14647.625   -19465.772    307.75116   -517.80306    1.0228641       0.4295      0.06924      0.03423     -0.05154 
  860000   -3367.8131    667.72272   -4035.5358    733.97256    14690.835   -19466.022    307.70211   -182.74112    1.0304005         0.43       0.0696       0.0342      -0.0516 
  861000   -3385.2397    671.54448   -4056.7842    745.00065    14659.783   -19467.192    309.46326   -587.05341    1.0122824       0.4305      0.06996      0.03417     -0.05166 
  862000   -3317.7193     659.7402   -3977.4595    739.96007    14741.341   -19463.921    304.02358   -333.38173    0.9893953        0.431      0.07032      0.03414     -0.05172 
  863000   -3338.3617    645.47816   -3983.8399    716.09423    14761.719   -19465.453     297.4513   -730.13373    1.0076724       0.4315      0.07068      0.03411     -0.05178 
  864000   -3330.2918    673.16076   -4003.4525    740.47521    14715.499   -19465.138    310.20808    38.205852      1.00463        0.432      0.07104      0.03408     -0.05184 
  865000   -3434.4783    643.48787   -4077.9661    731.19284    14654.708   -19468.272    296.53413   -1357.0771   0.98248617       0.4325       0.0714      0.03405      -0.0519 
  866000   -3339.5764    651.81429   -3991.3907    734.94722    14733.759   -19466.429    300.37114   -420.83861    1.0013058        0.433      0.07176      0.03402     -0.05196 
  867000   -3329.4472    642.05517   -3971.5024    741.09585    14749.891   -19466.771     295.8739   -88.534042   0.98956183       0.4335      0.07212      0.03399     -0.05202 
  868000   -3349.0165     647.7446   -3996.7611    735.57047    14726.911   -19463.898    298.49573   -632.41994   0.98341024        0.434      0.07248      0.03396     -0.05208 
  869000   -3376.2151    650.47615   -4026.6913    773.62905     14659.66    -19465.22    299.75449   -240.39253   0.99244633       0.4345      0.07284      0.03393     -0.05214 
  870000   -3356.2502    644.97773   -4001.2279    758.70003    14700.375    -19465.43    297.22069   -438.48734   0.99464109        0.435       0.0732       0.0339      -0.0522 
  871000   -3354.8098    645.80947   -4000.6192    717.89031    14740.423   -19464.537    297.60397   -1087.4609   0.98464595       0.4355      0.07356      0.03387     -0.05226 
  872000   -3370.9825    664.14499   -4035.1275    786.39779    14641.044   -19466.722    306.05341    393.07342    1.0021859        0.436      0.07392      0.03384     -0.05232 
  873000   -3363.4089    641.38373   -4004.7926    770.71179    14680.599   -19461.647    295.56449    63.534722    1.0065703       0.4365      0.07428      0.03381     -0.05238 
  874000    -3331.013    644.58599    -3975.599    735.82675    14747.019   -19462.278    297.04017   -406.17505    1.0031321        0.437      0.07464      0.03378     -0.05244 
  875000   -3360.8484     654.1271   -4014.9755     803.6149    14636.046   -19461.378    301.43693    1049.9032     1.010184       0.4375        0.075      0.03375      -0.0525 
  876000   -3282.7037     689.1425   -3971.8462    729.59649    14758.332   -19465.191    317.57284   -474.67006   0.99480188        0.438      0.07536      0.03372     -0.05256 
  877000   -3339.9548    662.03535   -4001.9901    774.22122    14685.327   -19466.352    305.08123    217.52987    1.0065398       0.4385      0.07572      0.03369     -0.05262 
  878000   -3336.5064    635.97385   -3972.4802    741.19034    14746.705    -19466.22     293.0715    78.947363    1.0177551        0.439      0.07608      0.03366     -0.05268 
  879000    -3430.185    620.08829   -4050.2733    683.97801    14729.791   -19467.508    285.75106   -1564.7475    1.0057262       0.4395      0.07644      0.03363     -0.05274 
  880000   -3362.2333    678.32153   -4040.5548    833.50764    14587.389    -19465.36    312.58628    1606.0381    1.0253143         0.44       0.0768       0.0336      -0.0528 
  881000   -3366.8783    639.78279   -4006.6611    788.61599    14664.459   -19465.125    294.82674    792.66762    1.0243186       0.4405      0.07716      0.03357     -0.05286 
  882000   -3394.1097     639.1637   -4033.2734    679.88107    14747.211   -19465.889    294.54145   -1375.8736    1.0227262        0.441      0.07752      0.03354     -0.05292 
  883000   -3350.2971     632.9413   -3983.2384    725.51425     14750.39   -19464.759    291.67403    68.937165    1.0258785       0.4415      0.07788      0.03351     -0.05298 
  884000   -3378.4393     639.3574   -4017.7967    800.32858    14640.238   -19464.365    294.63071    1116.9987     1.033254        0.442      0.07824      0.03348     -0.05304 
  885000   -3327.2269    664.18997   -3991.4169    795.08699    14676.456   -19465.476    306.07414    1057.6316    1.0027686       0.4425       0.0786      0.03345      -0.0531 
  886000   -3330.1481    666.90978   -3997.0579    813.78477    14649.185   -19464.993    307.32749    971.17256   0.98831444        0.443      0.07896      0.03342     -0.05316 
  887000   -3398.0903    658.51789   -4056.6082    754.36199    14650.805    -19465.15    303.46031   -141.99601     1.018861       0.4435      0.07932      0.03339     -0.05322 
  888000   -3320.5128    697.75822   -4018.2711    781.29347    14661.011   -19464.607    321.54316    833.88915    1.0214458        0.444      0.07968      0.03336     -0.05328 
  889000   -3325.5722    666.50029   -3992.0724    768.31207    14702.646   -19466.456    307.13879    67.297444   0.98959392       0.4445      0.08004      0.03333     -0.05334 
  890000   -3302.2091    691.57926   -3993.7884    774.80902    14692.081   -19465.644    318.69576    619.21763    1.0013845        0.445       0.0804       0.0333      -0.0534 
  891000   -3348.3179    660.89928   -4009.2172    759.08465     14691.71   -19463.521    304.55771    100.62989   0.99921669       0.4455      0.08076      0.03327     -0.05346 
  892000   -3407.8021    639.70845   -4047.5105     793.3722    14622.229   -19467.042    294.79248    324.86712    1.0013829        0.446      0.08112      0.03324     -0.05352 
  893000   -3281.9222    706.76672   -3988.6889    792.97157    14677.595   -19464.813    325.69449    1306.0733    1.0129236       0.4465      0.08148      0.03321     -0.05358 
  894000   -3360.2638    650.97754   -4011.2414      748.695    14700.692   -19465.394    299.98554   -230.44142   0.99036764        0.447      0.08184      0.03318     -0.05364 
  895000   -3365.6035    628.34368   -3993.9472    804.56174    14663.117   -19465.085    289.55533    743.79603   0.99692227       0.4475       0.0822      0.03315      -0.0537 
  896000   -3339.2072    661.45156   -4000.6588    784.32322    14677.375    -19465.74    304.81221    501.64771   0.99799022        0.448      0.08256      0.03312     -0.05376 
  897000   -3338.8945    656.09594   -3994.9905    767.66199    14694.636   -19463.787    302.34422    134.49779   0.97806886       0.4485      0.08292      0.03309     -0.05382 
  898000   -3358.0886    666.17002   -4024.2587    714.82148    14722.693   -19466.131    306.98659   -1161.6559   0.98697546        0.449      0.08328      0.03306     -0.05388 
  899000   -3326.4338    675.44984   -4001.8836     747.6058    14711.824   -19465.334    311.26294   -276.79773   0.99727593       0.4495      0.08364      0.03303     -0.05394 
  900000   -3373.0493    643.51045   -4016.5598    782.66035    14660.135   -19464.259    296.54453    357.46644     1.000994         0.45        0.084        0.033       -0.054 
  901000   -3427.7963    633.87941   -4061.6757    771.69099    14628.732   -19466.331    292.10633   -260.33914    1.0087553       0.4505      0.08436      0.03297     -0.05406 
  902000   -3384.7708     668.4962    -4053.267    767.78112    14639.036   -19463.114    308.05854    112.09672    1.0252156        0.451      0.08472      0.03294     -0.05412 
  903000   -3393.0612    641.85289   -4034.9141    747.76554    14680.324   -19467.459    295.78069   -366.88223    1.0061088       0.4515      0.08508      0.03291     -0.05418 
  904000   -3424.4877    608.06087   -4032.5486    791.62807    14638.418   -19466.539    280.20854    892.06978    1.0170407        0.452      0.08544      0.03288     -0.05424 
  905000   -3321.0483    682.69568    -4003.744    763.53352     14694.17   -19464.388      314.602     138.7506   0.98948847       0.4525       0.0858      0.03285      -0.0543 
  906000   -3361.8878    669.99626    -4031.884    818.33084     14609.88   -19464.114    308.74981     1203.671    1.0189778        0.453      0.08616      0.03282     -0.05436 
  907000   -3391.1711    658.96714   -4050.1383    836.27779    14573.243   -19462.926    303.66733    1146.9106   0.99978719       0.4535      0.08652      0.03279     -0.05442 
  908000   -3430.8346    615.31701   -4046.1516    747.95334    14667.735   -19465.842    283.55234   -76.458203     1.026632        0.454      0.08688      0.03276     -0.05448 
  909000   -3392.7748    638.24411   -4031.0189    740.24801    14689.291   -19465.968    294.11768   -643.61415   0.99275366       0.4545      0.08724      0.03273     -0.05454 
  910000   -3357.9012    657.65668   -4015.5579    768.84745    14677.214   -19465.396    303.06345    354.38663    1.0206673        0.455       0.0876       0.0327      -0.0546 
  911000   -3391.0692      668.458   -4059.5272    763.90646    14636.987   -19464.708    308.04094   -393.73817    1.0020394       0.4555      0.08796      0.03267     -0.05466 
  912000   -3380.7323    641.50759   -4022.2399    753.42059    14685.302   -19466.751    295.62157   -265.97662   0.99428262        0.456      0.08832      0.03264     -0.05472 
  913000   -3350.0884    659.65053    -4009.739    746.84211    14707.142   -19467.359    303.98226    84.648659    1.0167305       0.4565      0.08868      0.03261     -0.05478 
  914000   -3362.8484    674.15036   -4036.9987    739.62848    14686.027   -19466.551    310.66411   -840.85944   0.99420777        0.457      0.08904      0.03258     -0.05484 
  915000   -3339.9214    665.97798   -4005.8994    731.43827    14721.223   -19464.423    306.89809   -202.56439    1.0051595       0.4575       0.0894      0.03255      -0.0549 
  916000   -3307.3115    699.64223   -4006.9537     782.2441    14667.442    -19463.56    322.41136    863.11967     1.011653        0.458      0.08976      0.03252     -0.05496 
  917000   -3373.4365    647.69916   -4021.1357    759.51863    14677.842   -19461.785    298.47479   -614.71369   0.98832209       0.4585      0.09012      0.03249     -0.05502 
  918000   -3346.5152    653.45265   -3999.9678    738.38759    14719.881   -19463.545    301.12613   -423.80236     1.007225        0.459      0.09048      0.03246     -0.05508 
  919000   -3356.0498    653.67385   -4009.7237    702.53079    14747.457   -19464.294    301.22807   -1310.7464    0.9881751       0.4595      0.09084      0.03243     -0.05514 
  920000   -3380.9943    629.57852   -4010.5728    797.22742    14652.138     -19465.5    290.12438    847.90063    1.0060393         0.46       0.0912       0.0324      -0.0552 
  921000    -3331.611    680.87856   -4012.4895    744.70672    14701.868   -19464.465    313.76462    -463.1145   0.99345085       0.4605      0.09156      0.03237     -0.05526 
  922000   -3349.9805    662.67982   -4012.6603    746.03968    14699.771   -19464.971    305.37822   -386.62013    1.0019892        0.461      0.09192      0.03234     -0.05532 
  923000    -3327.314    639.45653   -3966.7705    774.43292    14714.348   -19463.056    294.67639    595.29646    0.9944869       0.4615      0.09228      0.03231     -0.05538 
  924000   -3364.5385     642.2733   -4006.8118    780.73471    14673.783   -19466.127    295.97443    646.03308    1.0197674        0.462      0.09264      0.03228     -0.05544 
  925000   -3391.4276    634.69384   -4026.1215     725.4734    14706.099   -19463.131    292.48164   -613.69019     1.024694       0.4625        0.093      0.03225      -0.0555 
  926000   -3375.0032     673.9616   -4048.9648    741.40447    14671.938   -19465.643    310.57713   -479.35341    1.0073295        0.463      0.09336      0.03222     -0.05556 
  927000   -3309.3779    652.82859   -3962.2065    700.95077     14794.44   -19463.212    300.83855   -920.93267    1.0020643       0.4635      0.09372      0.03219     -0.05562 
  928000   -3368.6658    620.52778   -3989.1936    766.37919    14704.681   -19464.834    285.95359   -50.475798   0.98312826        0.464      0.09408      0.03216     -0.05568 
  929000    -3412.056    649.12393   -4061.1799    753.35955    14648.843   -19467.367    299.13136   -657.02502   0.99618289       0.4645      0.09444      0.03213     -0.05574 
  930000   -3369.8054    660.64313   -4030.4486    711.49616    14720.225   -19466.565    304.43967    -1168.672    1.0045806        0.465       0.0948       0.0321      -0.0558 
  931000   -3417.7759    653.04983   -4070.8258    821.54788    14571.013   -19467.745     300.9405    518.02622   0.99731392       0.4655      0.09516      0.03207     -0.05586 
  932000   -3350.8719    653.69805   -4004.5699    737.08872    14719.583   -19465.422    301.23922   -692.16644   0.99364587        0.466      0.09552      0.03204     -0.05592 
  933000   -3356.5497    643.73592   -4000.2857    735.13054    14725.175   -19463.135    296.64844   -410.47938   0.99773134       0.4665      0.09588      0.03201     -0.05598 
  934000   -3418.7341     648.4926   -4067.2267    719.68031    14676.455   -19466.261    298.84042   -1335.6803   0.99171299        0.467      0.09624      0.03198     -0.05604 
  935000    -3375.779    637.42249   -4013.2015    784.20783    14665.492    -19467.09    293.73906    408.98864    1.0149252       0.4675       0.0966      0.03195      -0.0561 
  936000    -3402.041     621.5146   -4023.5556    773.08374    14667.788   -19468.237    286.40834    524.71695    1.0202724        0.468      0.09696      0.03192     -0.05616 
  937000   -3322.4609     660.0541    -3982.515    680.50431     14800.11   -19466.967    304.16823   -1145.0125    1.0052719       0.4685      0.09732      0.03189     -0.05622 
  938000   -3407.0207    635.78105   -4042.8018    791.46844    14629.185   -19467.104    292.98265    962.85589    1.0281922        0.469      0.09768      0.03186     -0.05628 
  939000   -3339.2815    662.33525   -4001.6168    746.42015    14713.315   -19465.112    305.21944    100.69596    1.0234343       0.4695      0.09804      0.03183     -0.05634 
  940000   -3314.3377     667.0043    -3981.342    765.65042    14714.013   -19465.436    307.37104    181.47844    0.9911409         0.47       0.0984       0.0318      -0.0564 
  941000   -3378.9237    663.66341   -4042.5871    749.20276    14671.049   -19467.539    305.83149    -353.4848    1.0149951       0.4705      0.09876      0.03177     -0.05646 
  942000   -3374.5964    687.78674   -4062.3832    788.97815    14606.878   -19462.608    316.94808    459.83387    1.0143119        0.471      0.09912      0.03174     -0.05652 
  943000   -3380.4857    638.16993   -4018.6556    781.44797    14661.675   -19465.362     294.0835    44.274899   0.98723567       0.4715      0.09948      0.03171     -0.05658 
  944000   -3422.0158    615.43628   -4037.4521    773.01132     14651.19   -19466.141     283.6073    224.98926    1.0139813        0.472      0.09984      0.03168     -0.05664 
  945000   -3396.1554     611.8519   -4008.0074    736.42309     14714.37    -19464.08    281.95554   -812.52999    1.0008486       0.4725       0.1002      0.03165      -0.0567 
  946000   -3326.3494    657.30585   -3983.6552    745.83545    14732.821   -19466.003    302.90177   -399.26121   0.98757604        0.473      0.10056      0.03162     -0.05676 
  947000   -3333.5362     665.9597   -3999.4959    753.37207     14710.21   -19468.402    306.88967   -179.44753   0.99223873       0.4735      0.10092      0.03159     -0.05682 
  948000   -3303.0484    666.37073   -3969.4191    721.15138    14772.447   -19467.766    307.07908   -422.97322   0.99159993        0.474      0.10128      0.03156     -0.05688 
  949000   -3440.7666    643.59871   -4084.3653    827.03425    14547.928   -19463.708     296.5852    988.96157    1.0184204       0.4745      0.10164      0.03153     -0.05694 
  950000   -3352.8184     651.1051   -4003.9235    783.36662    14670.241   -19463.398    300.04433    684.85141    1.0179169        0.475        0.102       0.0315       -0.057 
  951000   -3354.7921    655.20186    -4009.994    720.74882    14728.708   -19465.003    301.93221   -444.34051    1.0163678       0.4755      0.10236      0.03147     -0.05706 
  952000   -3295.3318    679.68373   -3975.0155    756.89988    14727.594   -19464.077    313.21402    718.23811     1.025721        0.476      0.10272      0.03144     -0.05712 
  953000   -3269.0844    664.13241   -3933.2168    719.02037    14809.061   -19465.116    306.04761   -159.66264    1.0097363       0.4765      0.10308      0.03141     -0.05718 
  954000   -3319.9713    646.33005   -3966.3013    736.02855    14756.788   -19462.722    297.84387    82.705262     1.018389        0.477      0.10344      0.03138     -0.05724 
  955000     -3387.92    648.84052   -4036.7605    833.67196    14591.525   -19466.114    299.00076    1122.0528   0.99726438       0.4775       0.1038      0.03135      -0.0573 
  956000   -3361.0787    667.27037   -4028.3491     785.9404    14645.823   -19462.946    307.49365     535.4536    1.0104752        0.478      0.10416      0.03132     -0.05736 
  957000   -3359.2163    673.68759   -4032.9039    739.01803    14688.038   -19464.576    310.45086   -447.86409    1.0175264       0.4785      0.10452      0.03129     -0.05742 
  958000   -3361.3069    647.30789   -4008.6148    765.70748     14689.03   -19467.473    298.29448    262.88824    1.0225791        0.479      0.10488      0.03126     -0.05748 
  959000   -3371.4417    620.19873   -3991.6405    719.80807    14750.456   -19463.761    285.80195   -613.36787   0.99968196       0.4795      0.10524      0.03123     -0.05754 
  960000   -3349.6306    651.31513   -4000.9457    756.54612    14707.364   -19468.105    300.14111    342.76381    1.0245842         0.48       0.1056       0.0312      -0.0576 
  961000   -3421.7113    660.07548   -4081.7868     858.9041    14519.308   -19464.075    304.17809    1986.3492     1.032904       0.4805      0.10596      0.03117     -0.05766 
  962000   -3423.5809    647.29595   -4070.8769    800.86315    14590.985   -19467.071    298.28898    917.71733    1.0252494        0.481      0.10632      0.03114     -0.05772 
  963000   -3417.0651    644.31049   -4061.3756    729.85545    14672.806   -19466.976    296.91321   -947.24508    1.0138587       0.4815      0.10668      0.03111     -0.05778 
  964000   -3341.0015    637.67957   -3978.6811    768.43899    14713.971   -19464.562    293.85753    470.48043    1.0081559        0.482      0.10704      0.03108     -0.05784 
  965000   -3385.2434     664.9429   -4050.1863    797.85151    14614.063   -19464.515     306.4211    732.89242    1.0105053       0.4825       0.1074      0.03105      -0.0579 
  966000   -3399.0529    645.84502    -4044.898    817.79033     14599.29   -19464.907    297.62036    1114.6809    1.0188332        0.483      0.10776      0.03102     -0.05796 
  967000   -3369.3768    654.96404   -4024.3409    727.66768    14710.894   -19467.075    301.82261   -677.92417    1.0115857       0.4835      0.10812      0.03099     -0.05802 
  968000   -3346.5084    618.99587   -3965.5042    717.40467    14779.411   -19464.492    285.24765   -718.56475   0.99092066        0.484      0.10848      0.03096     -0.05808 
  969000   -3309.9286    654.59362   -3964.5223    763.02187    14732.664   -19462.859    301.65192    552.66866     1.001887       0.4845      0.10884      0.03093     -0.05814 
  970000   -3302.7656    701.95625   -4004.7218     778.2553    14678.218   -19464.034    323.47771    834.94649    1.0149016        0.485       0.1092       0.0309      -0.0582 
  971000   -3405.9074    637.12771   -4043.0351    817.45538    14603.499   -19466.384    293.60322    811.15239    1.0016468       0.4855      0.10956      0.03087     -0.05826 
  972000   -3414.4255    621.71415   -4036.1396    771.02274      14653.6   -19463.074    286.50029    14.830796    1.0041395        0.486      0.10992      0.03084     -0.05832 
  973000   -3278.6131    681.14911   -3959.7622    724.27348    14780.139   -19467.586     313.8893    162.06239    1.0150771       0.4865      0.11028      0.03081     -0.05838 
  974000   -3356.5918    662.18041   -4018.7723    788.10994    14657.284   -19467.588    305.14808    655.74255    1.0109399        0.487      0.11064      0.03078     -0.05844 
  975000   -3407.7022    636.76179   -4044.4639    768.70926    14650.564   -19466.402    293.43459   -218.66324   0.99255262       0.4875        0.111      0.03075      -0.0585 
  976000   -3368.8021    632.97486    -4001.777     731.4742    14729.577    -19465.77    291.68949   -401.96837   0.99776725        0.488      0.11136      0.03072     -0.05856 
  977000   -3363.3862    640.25394   -4003.6401    791.62337    14667.797   -19466.213    295.04386     1037.354    1.0132979       0.4885      0.11172      0.03069     -0.05862 
  978000   -3451.8649    625.62552   -4077.4904    805.12642    14582.369   -19467.674    288.30274    443.11688     1.007792        0.489      0.11208      0.03066     -0.05868 
  979000   -3363.7757    632.79852   -3996.5742    744.41313    14721.393   -19465.758    291.60823   -28.504148    1.0098077       0.4895      0.11244      0.03063     -0.05874 
  980000   -3332.7913    655.80094   -3988.5922    733.03456    14739.943   -19464.359    302.20828   -128.36247    1.0088792         0.49       0.1128       0.0306      -0.0588 
  981000   -3331.8142    650.85843   -3982.6726    707.10393    14771.424   -19464.191    299.93065   -618.37023    1.0191903       0.4905      0.11316      0.03057     -0.05886 
  982000   -3418.1137    646.41109   -4064.5248    788.80025    14609.695   -19465.895    297.88122    195.06517    1.0239969        0.491      0.11352      0.03054     -0.05892 
  983000     -3381.33    661.27121   -4042.6013    748.62012    14667.944   -19462.392     304.7291   -399.97313    1.0128918       0.4915      0.11388      0.03051     -0.05898 
  984000   -3393.8706    668.15646   -4062.0271    740.22505    14661.375   -19466.006    307.90199   -632.14688    1.0060898        0.492      0.11424      0.03048     -0.05904 
  985000   -3359.3854    652.78786   -4012.1733    786.58714    14664.558   -19465.892    300.81978    361.37995   0.99716007       0.4925       0.1146      0.03045      -0.0591 
  986000   -3354.1334    679.57797   -4033.7114    783.95715    14647.166   -19467.645    313.16528    276.11103    1.0055204        0.493      0.11496      0.03042     -0.05916 
  987000   -3385.0083    652.83056   -4037.8388    775.55552     14646.81   -19462.887    300.83946   -7.9077364   0.99995328       0.4935      0.11532      0.03039     -0.05922 
  988000   -3364.3444    669.77305   -4034.1174    797.40773    14631.293   -19465.721    308.64695    477.44485   0.99603938        0.494      0.11568      0.03036     -0.05928 
  989000   -3375.6822    657.38401   -4033.0662    787.40431    14637.895   -19462.274    302.93779    290.43281    1.0166519       0.4945      0.11604      0.03033     -0.05934 
  990000   -3296.3233    687.25304   -3983.5763    716.41049    14763.316   -19465.497    316.70214   -867.28012   0.98974941        0.495       0.1164       0.0303      -0.0594 
  991000   -3353.7121    654.57278   -4008.2849    773.85003    14679.269   -19464.304    301.64231    407.22567    1.0037078       0.4955      0.11676      0.03027     -0.05946 
  992000   -3293.0609    681.87845   -3974.9394    764.80025    14723.296   -19465.328     314.2254    343.64618   0.99196255        0.496      0.11712      0.03024     -0.05952 
  993000   -3306.7733    687.21561   -3993.9889    794.59234    14674.935   -19466.621    316.68488    1001.0995    1.0087872       0.4965      0.11748      0.03021     -0.05958 
  994000   -3345.2568    675.25516    -4020.512    784.88379    14655.015   -19463.111    311.17323    714.11709     1.004439        0.497      0.11784      0.03018     -0.05964 
  995000   -3396.2816    637.44989   -4033.7314    758.47865    14669.779   -19464.969    293.75169   -560.35703   0.97595557       0.4975       0.1182      0.03015      -0.0597 
  996000   -3320.8185    678.15878   -3998.9773     742.6085    14722.758   -19467.047    312.51129    7.8161145    1.0102691        0.498      0.11856      0.03012     -0.05976 
  997000    -3343.533    662.99526   -4006.5282    739.31595    14713.606   -19462.664    305.52359   -598.21537   0.99434043       0.4985      0.11892      0.03009     -0.05982 
  998000   -3395.9618    650.85654   -4046.8184    755.10765    14661.628   -19466.053    299.92978   -214.38806    1.0222476        0.499      0.11928      0.03006     -0.05988 
  999000   -3365.9143    669.34655   -4035.2608    739.93654    14691.072   -19467.638    308.45041   -581.09265    1.0038381       0.4995      0.11964      0.03003     -0.05994 
 1000000   -3368.8274    646.05747   -4014.8848    729.13121    14719.302   -19466.066    297.71826   -992.09429   0.98503865          0.5         0.12         0.03        -0.06 
 1001000   -3329.7133     666.6064   -3996.3197    754.35293     14712.11   -19464.494    307.18768    43.813235    1.0077884       0.5005      0.12036      0.02997     -0.06006 
 1002000   -3340.7028    654.54556   -3995.2484    766.39976    14700.503   -19465.228    301.62977    75.916709   0.99306643        0.501      0.12072      0.02994     -0.06012 
 1003000   -3384.2704     656.5051   -4040.7755     843.8779    14579.301   -19467.696    302.53277    1518.3918     1.008398       0.5015      0.12108      0.02991     -0.06018 
 1004000   -3346.1318    653.98173   -4000.1136    761.54613    14701.765   -19466.214    301.36994    4.4951599   0.99026307        0.502      0.12144      0.02988     -0.06024 
 1005000   -3364.5072    660.11869   -4024.6259    764.93357    14673.842   -19465.636      304.198   -370.45902   0.97178136       0.5025       0.1218      0.02985      -0.0603 
 1006000   -3383.4386    647.58575   -4031.0243    774.32156    14658.104    -19465.82    298.42253    188.24883    1.0140965        0.503      0.12216      0.02982     -0.06036 
 1007000   -3368.0663     646.9926   -4015.0589     752.2581    14694.928   -19464.969    298.14919   -502.63565   0.99355314       0.5035      0.12252      0.02979     -0.06042 
 1008000   -3347.6499     663.4462   -4011.0961    775.53982    14675.347   -19464.099    305.73139   -34.630126   0.98092417        0.504      0.12288      0.02976     -0.06048 
 1009000   -3379.1904    642.79446   -4021.9849    769.75867     14674.46   -19467.811    296.21459    31.861392   0.99784823       0.5045      0.12324      0.02973     -0.06054 
 1010000   -3400.6871      639.437   -4040.1241     735.5206    14686.328   -19464.995    294.66739   -1220.3976   0.97109772        0.505       0.1236       0.0297      -0.0606 
 1011000   -3313.4933    688.94374   -4002.4371    765.48056    14693.384   -19464.499    317.48125   -43.904591    0.9882951       0.5055      0.12396      0.02967     -0.06066 
 1012000   -3369.0951    662.02405   -4031.1192    765.60473    14667.508   -19466.881    305.07603    -164.4034   0.98271192        0.506      0.12432      0.02964     -0.06072 
 1013000   -3472.7678    635.95445   -4108.7223    816.33249    14540.467   -19468.347    293.06255    197.03806    0.9967874       0.5065      0.12468      0.02961     -0.06078 
 1014000   -3402.6278    669.28259   -4071.9104    810.35019    14580.833   -19466.513    308.42093    725.87267    1.0070639        0.507      0.12504      0.02958     -0.06084 
 1015000   -3374.2739    662.81996   -4037.0939    745.21384    14680.532   -19466.167     305.4428    -357.0812    1.0147272       0.5075       0.1254      0.02955      -0.0609 
 1016000   -3372.8654    642.48162    -4015.347    816.34463    14631.633   -19466.173    296.07043    1320.1203     1.012753        0.508      0.12576      0.02952     -0.06096 
 1017000    -3326.235     646.4324   -3972.6674    724.98477    14765.332    -19465.35    297.89103   -326.20569    1.0064703       0.5085      0.12612      0.02949     -0.06102 
 1018000   -3307.3373    673.27366   -3980.6109    730.51939    14753.989   -19468.221    310.26011     -222.206    1.0066507        0.509      0.12648      0.02946     -0.06108 
 1019000   -3351.4858    657.91852   -4009.4043    731.79795    14723.126   -19467.297    303.18411   -694.68491   0.98021222       0.5095      0.12684      0.02943     -0.06114 
 1020000    -3308.181    658.41066   -3966.5917    781.36298    14715.102   -19465.706     303.4109    751.30438   0.99390249         0.51       0.1272       0.0294      -0.0612 
 1021000   -3398.9067    644.53716   -4043.4438    759.98627    14660.084   -19465.536    297.01766   -606.73694   0.98249692       0.5105      0.12756      0.02937     -0.06126 
 1022000   -3391.7682    663.67811   -4055.4463    788.74488    14619.165   -19465.588    305.83826    23.218347   0.98175602        0.511      0.12792      0.02934     -0.06132 
 1023000   -3323.2407    692.43993   -4015.6807    735.71318    14710.125   -19464.616    319.09237   -307.31425    1.0116081       0.5115      0.12828      0.02931     -0.06138 
 1024000   -3432.2678    634.25573   -4066.5236     749.9675    14649.873   -19467.303    292.27974   -653.00974    1.0108395        0.512      0.12864      0.02928     -0.06144 
 1025000   -3399.8957     652.9546   -4052.8503    751.55863    14662.872   -19468.931    300.89662    72.199496    1.0270602       0.5125        0.129      0.02925      -0.0615 
 1026000   -3351.2105    659.23403   -4010.4445    758.54428     14692.35   -19464.267    303.79033     365.7316    1.0137212        0.513      0.12936      0.02922     -0.06156 
 1027000    -3418.104    601.45632   -4019.5603    797.19922    14645.907   -19465.343    277.16502    912.37685    1.0339114       0.5135      0.12972      0.02919     -0.06162 
 1028000     -3353.86    662.24316   -4016.1032    693.23885    14755.246   -19465.964      305.177   -1374.8342    1.0071115        0.514      0.13008      0.02916     -0.06168 
 1029000   -3316.7979     642.4186   -3959.2165    735.86975    14767.783   -19465.578    296.04138    301.45297    1.0200215       0.5145      0.13044      0.02913     -0.06174 
 1030000   -3318.4567    638.97199   -3957.4287    741.26756    14763.242   -19463.582     294.4531    612.75689    1.0176731        0.515       0.1308       0.0291      -0.0618 
 1031000   -3337.5669    672.68362   -4010.2505    777.73162     14671.01   -19461.446    309.98821    260.70037   0.99865379       0.5155      0.13116      0.02907     -0.06186 
 1032000   -3374.9035    632.68138   -4007.5849    732.29591    14722.047   -19464.167    291.55424   -862.57542   0.97583679        0.516      0.13152      0.02904     -0.06192 
 1033000   -3325.8796    673.06462   -3998.9442    708.39518     14755.61   -19465.658    310.16378   -537.75517    1.0122066       0.5165      0.13188      0.02901     -0.06198 
 1034000    -3372.065    651.31476   -4023.3798    749.90618    14690.164   -19466.086    300.14094   -129.81398    1.0165004        0.517      0.13224      0.02898     -0.06204 
 1035000   -3407.4391    629.15227   -4036.5913    782.60742    14645.209   -19466.283    289.92795    576.44581    1.0171366       0.5175       0.1326      0.02895      -0.0621 
 1036000    -3350.079    632.30147   -3982.3805     765.5485    14715.246    -19465.79    291.37918    417.64211   0.99856034        0.518      0.13296      0.02892     -0.06216 
 1037000   -3330.0245    645.17753   -3975.2021    697.40561    14791.946   -19466.606    297.31276   -1358.8616   0.96773809       0.5185      0.13332      0.02889     -0.06222 
 1038000   -3380.5166     642.6163   -4023.1329    783.05658    14655.628   -19464.258    296.13249    816.98737    1.0256978        0.519      0.13368      0.02886     -0.06228 
 1039000   -3396.6097    644.49755   -4041.1072    727.75161    14696.663   -19468.056    296.99941    -918.6891   0.99446934       0.5195      0.13404      0.02883     -0.06234 
 1040000    -3337.234    671.57236   -4008.8063    755.80058    14700.517   -19467.953    309.47611    30.093551    1.0063779         0.52       0.1344       0.0288      -0.0624 
 1041000   -3317.9861    670.19833   -3988.1844    752.70764    14719.237   -19463.088    308.84293    44.481907    1.0047627       0.5205      0.13476      0.02877     -0.06246 
 1042000   -3374.8933    661.76604   -4036.6594    731.23964    14698.939   -19467.979    304.95713   -416.58502    1.0173245        0.521      0.13512      0.02874     -0.06252 
 1043000   -3327.5906    668.10812   -3995.6987    765.38294    14699.217   -19464.146    307.87971    508.47368    1.0082483       0.5215      0.13548      0.02871     -0.06258 
 1044000   -3399.2835    639.16348    -4038.447    788.06249    14637.324   -19467.512    294.54135    433.54291    1.0081176        0.522      0.13584      0.02868     -0.06264 
 1045000    -3362.592    628.35508    -3990.947    766.88708    14707.828   -19468.683    289.56059     436.8066    1.0077048       0.5225       0.1362      0.02865      -0.0627 
 1046000   -3309.9104    651.71565    -3961.626    706.10756    14790.637   -19461.749    300.32568   -647.67369    0.9955612        0.523      0.13656      0.02862     -0.06276 
 1047000   -3312.6704    678.49142   -3991.1618     741.3164      14729.5    -19464.85    312.66458   -143.94491    1.0020065       0.5235      0.13692      0.02859     -0.06282 
 1048000   -3319.2099    628.28277   -3947.4927    740.19733    14772.805   -19463.845    289.52726   -346.54141   0.99161965        0.524      0.13728      0.02856     -0.06288 
 1049000   -3376.9632    641.96199   -4018.9252    783.67924      14660.3   -19466.515    295.83097    340.37387   0.99822947       0.5245      0.13764      0.02853     -0.06294 
 1050000    -3314.908    663.51894    -3978.427    694.88518    14787.454   -19463.808    305.76491   -941.30496   0.99119864        0.525        0.138       0.0285       -0.063 
 1051000   -3329.6854    668.03231   -3997.7177    775.12036    14689.282   -19466.156    307.84477    167.83347   0.98981628       0.5255      0.13836      0.02847     -0.06306 
 1052000   -3352.4449     642.6123   -3995.0572    759.78202    14706.025   -19464.388    296.13064   -294.96343   0.98187333        0.526      0.13872      0.02844     -0.06312 
 1053000   -3365.0532    633.89541   -3998.9486    746.92568    14715.106   -19465.356     292.1137   -277.54875   0.98993724       0.5265      0.13908      0.02841     -0.06318 
 1054000   -3393.9494    665.58847   -4059.5379    799.29274    14601.874   -19464.774     306.7186    623.93909    1.0179531        0.527      0.13944      0.02838     -0.06324 
 1055000   -3377.8929    637.74537   -4015.6383    748.68045    14698.534   -19466.942    293.88785   -468.35343    0.9946914       0.5275       0.1398      0.02835      -0.0633 
 1056000    -3321.968    679.61415   -4001.5821    714.16911    14746.696   -19466.222    313.18196   -1091.7804   0.98692147        0.528      0.14016      0.02832     -0.06336 
 1057000   -3365.5113    654.40481   -4019.9161    789.07065    14652.893   -19464.536    301.56491    712.69974    1.0056864       0.5285      0.14052      0.02829     -0.06342 
 1058000   -3372.0202    632.00384    -4004.024    755.55252    14702.212   -19465.389    291.24202   -13.875312    1.0058538        0.529      0.14088      0.02826     -0.06348 
 1059000   -3412.1565    635.44019   -4047.5967    748.28162    14669.946   -19468.735    292.82557   -140.20069    1.0111536       0.5295      0.14124      0.02823     -0.06354 
 1060000   -3364.8603    674.84405   -4039.7044    819.40026    14604.676   -19466.916    310.98378     1070.439    1.0002275         0.53       0.1416       0.0282      -0.0636 
 1061000    -3369.276    633.14196   -4002.4179    795.54312    14662.596   -19465.277    291.76649    690.33961    0.9902386       0.5305      0.14196      0.02817     -0.06366 
 1062000   -3360.9811    642.43828   -4003.4194    756.89163    14702.638   -19465.899    296.05045    28.224543    1.0047933        0.531      0.14232      0.02814     -0.06372 
 1063000   -3304.0516    663.04788   -3967.0995    810.27875    14686.085   -19466.665    305.54783    1219.1056   0.97795277       0.5315      0.14268      0.02811     -0.06378 
 1064000   -3362.7096     634.1707   -3996.8803    747.44354    14717.771   -19466.402    292.24056   -293.65284   0.99096566        0.532      0.14304      0.02808     -0.06384 
 1065000   -3332.8039     652.8664   -3985.6703    758.48447    14719.863   -19468.038    300.85597    325.13981     1.019933       0.5325       0.1434      0.02805      -0.0639 
 1066000    -3369.155    640.25202    -4009.407    724.37476    14726.459   -19463.637    295.04297   -846.20627   0.99030504        0.533      0.14376      0.02802     -0.06396 
 1067000   -3343.0569    640.43126   -3983.4881    753.70616    14727.471   -19466.008    295.12557    475.31227    1.0287812       0.5335      0.14412      0.02799     -0.06402 
 1068000   -3420.5835    626.06508   -4046.6486     764.2583    14651.366    -19465.42     288.5053   -4.8854893    1.0082626        0.534      0.14448      0.02796     -0.06408 
 1069000   -3416.2299    616.01245   -4032.2423    806.64589    14622.128   -19464.274    283.87282    737.67398    1.0085758       0.5345      0.14484      0.02793     -0.06414 
 1070000   -3362.3167    677.24331   -4039.5601    747.35006    14678.337   -19467.421    312.08942   -637.82802   0.98850853        0.535       0.1452       0.0279      -0.0642 
 1071000   -3378.2186    644.21766   -4022.4362    729.23773    14711.022   -19466.218    296.87043   -1082.9851   0.97630265       0.5355      0.14556      0.02787     -0.06426 
 1072000   -3318.2848    643.62164   -3961.9064    749.72428    14746.446   -19462.104    296.59577   -197.05636   0.96869493        0.536      0.14592      0.02784     -0.06432 
 1073000   -3350.8462    653.14438   -4003.9906    743.18398    14717.696   -19468.234    300.98407   -466.98579   0.99051999       0.5365      0.14628      0.02781     -0.06438 
 1074000   -3379.4878    637.50194   -4016.9898    739.51215    14705.839   -19464.466    293.77567   -757.14399   0.96992256        0.537      0.14664      0.02778     -0.06444 
 1075000   -3299.8279    665.47965   -3965.3075    707.46953    14787.723   -19465.742    306.66845   -483.76346    1.0111468       0.5375        0.147      0.02775      -0.0645 
 1076000   -3324.0986    675.14536   -3999.2439    755.19995    14710.168   -19468.447    311.12263   -86.718834    1.0025075        0.538      0.14736      0.02772     -0.06456 
 1077000   -3341.0407    655.92627    -3996.967    726.29159    14738.655   -19466.396    302.26603   -676.32942    0.9980368       0.5385      0.14772      0.02769     -0.06462 
 1078000   -3398.5544    639.86297   -4038.4173    812.97653    14610.081   -19465.738    294.86369     733.4046    1.0104269        0.539      0.14808      0.02766     -0.06468 
 1079000   -3412.3076    644.85699   -4057.1646    734.55815    14670.311   -19465.682    297.16505   -537.29179    1.0244552       0.5395      0.14844      0.02763     -0.06474 
 1080000   -3364.6977    664.31386   -4029.0115    753.19317    14684.535   -19469.479    306.13122     353.2007    1.0301806         0.54       0.1488       0.0276      -0.0648 
 1081000   -3360.8066    670.99634   -4031.8029    721.29995    14711.556   -19469.804    309.21067   -720.70253    1.0154899       0.5405      0.14916      0.02757     -0.06486 
 1082000   -3340.8852    654.84516   -3995.7303    756.27036    14710.071   -19464.991    301.76783    991.36504    1.0361314        0.541      0.14952      0.02754     -0.06492 
 1083000   -3319.7111    631.82093    -3951.532    707.00204    14804.041   -19467.446    291.15773    -222.5223     1.015697       0.5415      0.14988      0.02751     -0.06498 
 1084000   -3378.6341     613.2142   -3991.8483    716.53838    14753.797   -19466.162    282.58332   -423.35837    1.0185559        0.542      0.15024      0.02748     -0.06504 
 1085000   -3304.5541    658.41005   -3962.9642    707.07673    14793.708   -19467.102    303.41061    14.125601    1.0404532       0.5425       0.1506      0.02745      -0.0651 
 1086000   -3322.7989    675.27521   -3998.0741    759.93753    14700.339   -19462.828    311.18247    712.51332    1.0381944        0.543      0.15096      0.02742     -0.06516 
 1087000   -3365.3408    645.92545   -4011.2662    809.26884    14640.648   -19465.276    297.65742    1686.4913      1.02959       0.5435      0.15132      0.02739     -0.06522 
 1088000   -3286.0954    684.54443   -3970.6399    737.05696    14756.095   -19466.996    315.45394    93.435384    1.0160141        0.544      0.15168      0.02736     -0.06528 
 1089000   -3397.7657    639.35958   -4037.1253    794.85169    14627.906   -19465.281    294.63171    524.55922    1.0052589       0.5445      0.15204      0.02733     -0.06534 
 1090000   -3340.3225    668.73933   -4009.0618     761.7079    14690.067   -19464.769    308.17059    193.56703    1.0135543        0.545       0.1524       0.0273      -0.0654 
 1091000   -3397.6721    640.42693    -4038.099    796.22666    14629.451   -19466.026    295.12358    734.72542    1.0219859       0.5455      0.15276      0.02727     -0.06546 
 1092000   -3349.4677    654.42779   -4003.8954    763.65012    14691.834   -19466.313     301.5755   -28.016532   0.98560471        0.546      0.15312      0.02724     -0.06552 
 1093000   -3342.9288    690.97503   -4033.9038    718.10744    14709.759   -19466.886    318.41731    -1252.333   0.98904343       0.5465      0.15348      0.02721     -0.06558 
 1094000   -3417.9798    666.85617    -4084.836    851.10987    14528.542   -19467.888    307.30278    1168.0126    1.0038735        0.547      0.15384      0.02718     -0.06564 
 1095000   -3377.4206    684.72282   -4062.1434    772.27515    14628.113   -19469.241    315.53615    19.377772   0.99489529       0.5475       0.1542      0.02715      -0.0657 
 1096000   -3340.7282    681.25652   -4021.9847    756.22826    14680.152   -19465.994     313.9388   -39.396825    1.0051052        0.548      0.15456      0.02712     -0.06576 
 1097000   -3387.7551    638.52677   -4026.2818    805.30186    14626.822   -19464.723    294.24794    706.32403    1.0122837       0.5485      0.15492      0.02709     -0.06582 
 1098000   -3355.7588    702.43648   -4058.1953    803.37532     14597.89   -19465.842    323.69902    655.52866    1.0108763        0.549      0.15528      0.02706     -0.06588 
 1099000   -3365.2857    625.86572   -3991.1515    751.69602    14718.886   -19466.407    288.41343   -416.77042   0.97753477       0.5495      0.15564      0.02703     -0.06594 
 1100000   -3310.1394    659.73237   -3969.8718    739.94292    14750.797   -19465.987    304.01997    189.39854    1.0115485         0.55        0.156        0.027       -0.066 
 1101000   -3379.0169    643.34997   -4022.3669    757.85555    14679.484   -19463.779    296.47058     -528.945   0.99879358       0.5505      0.15636      0.02697     -0.06606 
 1102000   -3369.5779    667.39893   -4036.9768    742.17201    14684.884   -19468.939     307.5529   -430.45133    1.0018459        0.551      0.15672      0.02694     -0.06612 
 1103000   -3373.8928     660.0326   -4033.9254    777.35696     14652.43    -19467.52    304.15832    60.270732   0.99073954       0.5515      0.15708      0.02691     -0.06618 
 1104000    -3416.319     670.3145   -4086.6335    812.32483    14563.837   -19466.921    308.89646    619.73422    1.0023579        0.552      0.15744      0.02688     -0.06624 
 1105000   -3388.0701    666.70138   -4054.7715    735.71965    14670.739   -19468.522    307.23145   -684.36061    1.0018429       0.5525       0.1578      0.02685      -0.0663 
 1106000   -3326.0266    666.80981   -3992.8364    740.05525     14731.74   -19466.882    307.28142   -106.97269    1.0102265        0.553      0.15816      0.02682     -0.06636 
 1107000   -3361.5768    672.50615    -4034.083    821.35367    14604.978   -19466.347    309.90642     1435.718    1.0221139       0.5535      0.15852      0.02679     -0.06642 
 1108000   -3332.6074    666.88624   -3999.4936    787.47709      14674.5   -19467.895    307.31664    699.32874    1.0063229        0.554      0.15888      0.02676     -0.06648 
 1109000   -3401.1156    636.46447   -4037.5801    824.69494    14597.082   -19465.941    293.29758     1138.545    1.0133097       0.5545      0.15924      0.02673     -0.06654 
 1110000   -3346.3578    683.12245   -4029.4803    720.79365    14708.341    -19464.78    314.79866   -687.66365    1.0052166        0.555       0.1596       0.0267      -0.0666 
 1111000   -3391.6226    640.25382   -4031.8764    750.06496    14678.076   -19466.821     295.0438   -276.27191    1.0064269       0.5555      0.15996      0.02667     -0.06666 
 1112000   -3376.8511    612.23997    -3989.091    696.82754    14775.729    -19466.54    282.13437   -1240.6148    1.0062924        0.556      0.16032      0.02664     -0.06672 
 1113000    -3351.784    650.23897   -4002.0229    737.05258     14722.55   -19466.897    299.64519   -560.33727   0.98973402       0.5565      0.16068      0.02661     -0.06678 
 1114000   -3379.9156    648.33905   -4028.2547    727.61455    14700.053   -19463.836    298.76966   -1108.7466   0.99167053        0.557      0.16104      0.02658     -0.06684 
 1115000    -3400.116    658.73709   -4058.8531    759.97784    14643.418   -19468.247    303.56132     334.6277    1.0348535       0.5575       0.1614      0.02655      -0.0669 
 1116000   -3356.3734    647.31086   -4003.6842    755.83664    14698.182    -19465.69    298.29585     571.7015    1.0329924        0.558      0.16176      0.02652     -0.06696 
 1117000   -3349.7876    671.18784   -4020.9754    748.26804    14692.749   -19467.156    309.29892    51.823671    1.0235117       0.5585      0.16212      0.02649     -0.06702 
 1118000    -3451.593    615.85122   -4067.4442    781.80898    14609.496   -19464.296    283.79852   -41.889312    1.0130448        0.559      0.16248      0.02646     -0.06708 
 1119000   -3367.8104    642.99364    -4010.804    691.11813    14759.881   -19466.136    296.30637   -1396.4295   0.99701153       0.5595      0.16284      0.02643     -0.06714 
 1120000   -3423.6434    633.62946   -4057.2728    783.61352    14621.139   -19467.457    291.99114    314.53668    1.0044345         0.56       0.1632       0.0264      -0.0672 
 1121000     -3366.76    648.74698    -4015.507    819.20451    14622.473   -19464.983    298.95765    1099.9249    1.0129855       0.5605      0.16356      0.02637     -0.06726 
 1122000   -3360.4247    673.62876   -4034.0534    756.35344    14669.257   -19465.146    310.42375   -347.60573   0.99541654        0.561      0.16392      0.02634     -0.06732 
 1123000   -3356.9973    648.63506   -4005.6324    748.08164    14704.906   -19467.481    298.90607   -21.365522    1.0054614       0.5615      0.16428      0.02631     -0.06738 
 1124000   -3350.1593    662.57088   -4012.7302    756.99263    14691.991   -19465.238    305.32802   -172.81834   0.99828665        0.562      0.16464      0.02628     -0.06744 
 1125000   -3394.7738    626.39847   -4021.1723    794.95894     14645.12   -19467.717    288.65894    787.40538     1.018324       0.5625        0.165      0.02625      -0.0675 
 1126000   -3335.8422    654.17395   -3990.0162    793.15293    14677.611   -19465.843    301.45852     753.1564    1.0058023        0.563      0.16536      0.02622     -0.06756 
 1127000   -3339.6791    655.45298   -3995.1321    800.59712    14663.707   -19465.476    302.04793    1322.5534    1.0084008       0.5635      0.16572      0.02619     -0.06762 
 1128000   -3408.5837    651.46017   -4060.0439    731.95619    14668.293   -19467.525    300.20795   -890.61463    1.0067304        0.564      0.16608      0.02616     -0.06768 
 1129000   -3394.0898    612.06658   -4006.1564    711.93373     14740.43   -19466.864    282.05447   -1140.2826    1.0065341       0.5645      0.16644      0.02613     -0.06774 
 1130000   -3314.7681    664.96097   -3979.7291     764.0062    14715.588   -19465.772    306.42943    382.30496    1.0061066        0.565       0.1668       0.0261      -0.0678 
 1131000    -3391.354    634.46792   -4025.8219    743.06748    14688.405   -19466.849    292.37752   -377.91749      1.00675       0.5655      0.16716      0.02607     -0.06786 
 1132000    -3373.721     667.0519   -4040.7729    779.72995    14636.603   -19466.191    307.39298    25.091753    1.0007285        0.566      0.16752      0.02604     -0.06792 
 1133000   -3363.7649     683.2479   -4047.0128    738.52568    14670.919   -19465.214    314.85647   -723.30221   0.99968795       0.5665      0.16788      0.02601     -0.06798 
 1134000    -3335.754    667.06832   -4002.8224    769.62887    14689.177   -19466.448    307.40055    389.26434    1.0067884        0.567      0.16824      0.02598     -0.06804 
 1135000   -3397.8163    620.49642   -4018.3127    801.06552    14637.014   -19466.986    285.93913    840.56795    1.0149669       0.5675       0.1686      0.02595      -0.0681 
 1136000   -3314.6773    683.65443   -3998.3317    745.28573    14718.152    -19466.01    315.04381   -25.270671    1.0160791        0.568      0.16896      0.02592     -0.06816 
 1137000   -3290.0425    675.13175   -3965.1743    718.41588    14769.462   -19462.717    311.11636   -850.84601   0.99165966       0.5685      0.16932      0.02589     -0.06822 
 1138000   -3326.4783    668.61832   -3995.0966    681.13658    14785.526   -19467.263    308.11482   -1162.5591    1.0236311        0.569      0.16968      0.02586     -0.06828 
 1139000   -3326.8076     670.7093   -3997.5169    734.22467    14729.263   -19465.903    309.07839   -283.42997    1.0092598       0.5695      0.17004      0.02583     -0.06834 
 1140000   -3369.5948    644.66935   -4014.2641    764.36941    14680.369   -19467.473    297.07858    65.894611   0.99473935         0.57       0.1704       0.0258      -0.0684 
 1141000   -3408.2076    640.13372   -4048.3413      746.517    14665.872   -19466.465    294.98846   -794.29075   0.99474576       0.5705      0.17076      0.02577     -0.06846 
 1142000   -3375.4559    637.99976   -4013.4557    763.80791    14684.029   -19465.576    294.00508   -33.615152    1.0059037        0.571      0.17112      0.02574     -0.06852 
 1143000   -3408.0047    667.96737    -4075.972    748.39572    14636.916   -19466.091    307.81485    -740.6382   0.99309467       0.5715      0.17148      0.02571     -0.06858 
 1144000   -3383.3776    675.32547    -4058.703    785.45295     14617.01   -19465.474    311.20563    551.14714    1.0141225        0.572      0.17184      0.02568     -0.06864 
 1145000   -3419.1053    652.72979   -4071.8351    803.78031    14584.523   -19466.085    300.79302    732.66882    1.0201213       0.5725       0.1722      0.02565      -0.0687 
 1146000   -3380.2533     667.8992   -4048.1525    811.27842     14600.77    -19466.46    307.78344    1327.4978    1.0414794        0.573      0.17256      0.02562     -0.06876 
 1147000   -3357.9053    651.39154   -4009.2969    707.48334    14741.211   -19466.166    300.17632   -944.27119    1.0109832       0.5735      0.17292      0.02559     -0.06882 
 1148000   -3366.4767    626.55973   -3993.0364    764.17012    14702.652   -19467.021    288.73325    87.083645    1.0096251        0.574      0.17328      0.02556     -0.06888 
 1149000   -3362.9448    673.79972   -4036.7446    757.79709    14666.592   -19467.103    310.50253    4.9909231    1.0235261       0.5745      0.17364      0.02553     -0.06894 
 1150000   -3406.4199    642.22196   -4048.6419    755.89198    14654.565   -19464.303    295.95077   -267.24612    1.0033485        0.575        0.174       0.0255       -0.069 
 1151000    -3351.832    651.63482   -4003.4668    765.71428    14691.607    -19466.69    300.28843    808.17934    1.0258209       0.5755      0.17436      0.02547     -0.06906 
 1152000   -3346.6262    665.25739   -4011.8836    750.70867    14699.355   -19467.804    306.56603     123.7614    1.0085066        0.576      0.17472      0.02544     -0.06912 
 1153000   -3356.6467    652.55279   -4009.1995    763.76786    14684.561   -19463.075    300.71145    286.82158    1.0113464       0.5765      0.17508      0.02541     -0.06918 
 1154000   -3350.8266    658.41064   -4009.2372    810.21559    14643.567   -19468.188    303.41089    1285.7812    1.0151712        0.577      0.17544      0.02538     -0.06924 
 1155000   -3374.2598    664.55637   -4038.8162    722.64869    14702.436   -19468.401    306.24298   -808.54485    1.0095149       0.5775       0.1758      0.02535      -0.0693 
 1156000   -3380.6149     645.5647   -4026.1796    778.20755    14657.493   -19467.711    297.49118    581.50887    1.0194093        0.578      0.17616      0.02532     -0.06936 
 1157000   -3369.3723    661.07552   -4030.4478    755.75551    14672.762   -19464.747    304.63893   -113.84166    0.9964716       0.5785      0.17652      0.02529     -0.06942 
 1158000   -3313.7703    668.59046   -3982.3608    767.98872    14705.981    -19463.09    308.10198    612.97589    1.0028104        0.579      0.17688      0.02526     -0.06948 
 1159000   -3318.7382    672.26957   -3991.0078    751.77338    14717.385   -19464.313     309.7974   -227.79716   0.97402974       0.5795      0.17724      0.02523     -0.06954 
 1160000    -3335.648    661.59602    -3997.244    703.14305    14764.574   -19469.778    304.87879   -980.60958   0.98755971         0.58       0.1776       0.0252      -0.0696 
 1161000   -3324.9406    674.29303   -3999.2336    779.28533    14682.329   -19467.848    310.72986    355.20755   0.98964259       0.5805      0.17796      0.02517     -0.06966 
 1162000   -3395.3205     661.3291   -4056.6496    766.10071    14638.043   -19468.011    304.75578   -257.93155    1.0078178        0.581      0.17832      0.02514     -0.06972 
 1163000   -3367.1459    649.20856   -4016.3545    718.98687    14724.939   -19466.158    299.17036   -1041.8345    0.9937711       0.5815      0.17868      0.02511     -0.06978 
 1164000   -3409.0106    642.27199   -4051.2825    837.99827    14571.143   -19466.506    295.97382    1898.2503    1.0313918        0.582      0.17904      0.02508     -0.06984 
 1165000   -3350.2078    670.14627    -4020.354    767.13931     14677.65   -19468.772    308.81894    358.31481    1.0231545       0.5825       0.1794      0.02505      -0.0699 
 1166000   -3336.9278    652.84762   -3989.7754    726.73225    14746.293   -19467.952    300.84732   -231.59954    1.0166805        0.583      0.17976      0.02502     -0.06996 
 1167000   -3341.1873    670.49038   -4011.6777    747.00629    14701.152   -19466.315    308.97751    141.43818    1.0126866       0.5835      0.18012      0.02499     -0.07002 
 1168000   -3381.9144    655.65775   -4037.5721    763.01797    14662.042   -19467.777    302.14229   -421.08332   0.98601234        0.584      0.18048      0.02496     -0.07008 
 1169000   -3376.8261    651.84397   -4028.6701    796.73502    14636.642   -19466.976    300.38481    188.19843   0.99336778       0.5845      0.18084      0.02493     -0.07014 
 1170000    -3314.742    652.79264   -3967.5346    815.90434    14678.315   -19467.144    300.82198    1387.7455    1.0022831        0.585       0.1812       0.0249      -0.0702 
 1171000     -3354.57    680.29494    -4034.865    740.32982    14682.643   -19462.849    313.49568   -387.83176    1.0021679       0.5855      0.18156      0.02487     -0.07026 
 1172000   -3360.0179    668.51168   -4028.5296    745.60936     14685.23   -19466.055    308.06568   -97.654813    1.0102328        0.586      0.18192      0.02484     -0.07032 
 1173000   -3300.0573    643.49551   -3943.5528    741.60224    14777.087   -19466.883    296.53765    29.679649    1.0071813       0.5865      0.18228      0.02481     -0.07038 
 1174000   -3305.3981    647.08871   -3952.4868    708.38999    14797.646   -19463.588    298.19348   -512.15817   0.99801812        0.587      0.18264      0.02478     -0.07044 
 1175000   -3363.9514    673.88675   -4037.8381    772.46407     14651.12   -19466.663    310.54264    134.22598    1.0074281       0.5875        0.183      0.02475      -0.0705 
 1176000   -3360.4232    627.31491   -3987.7381    765.99106    14707.525    -19466.93    289.08125    442.93036    1.0228266        0.588      0.18336      0.02472     -0.07056 
 1177000   -3367.4016    663.13135    -4030.533    747.18638     14684.34   -19470.156     305.5863   -56.391803    1.0151958       0.5885      0.18372      0.02469     -0.07062 
 1178000   -3410.4061     646.0412   -4056.4473     715.6296    14689.945   -19467.643    297.71076    -438.4902    1.0455647        0.589      0.18408      0.02466     -0.07068 
 1179000   -3403.8463     651.2911   -4055.1374    756.42197    14651.387   -19469.014    300.13004   -514.77159    1.0129778       0.5895      0.18444      0.02463     -0.07074 
 1180000   -3425.3718    623.87917    -4049.251     735.6883    14677.381   -19465.663    287.49799   -668.74058    1.0066601         0.59       0.1848       0.0246      -0.0708 
 1181000   -3387.6128    628.75194   -4016.3648    748.18341     14696.31    -19467.69    289.74347   -560.45848   0.99202834       0.5905      0.18516      0.02457     -0.07086 
 1182000   -3297.1018    661.57478   -3958.6766      716.283    14784.698   -19464.302    304.86899   -469.18024   0.99159988        0.591      0.18552      0.02454     -0.07092 
 1183000   -3323.2105    661.27186   -3984.4824    818.75293     14658.67   -19466.255     304.7294    1938.0644    1.0244246       0.5915      0.18588      0.02451     -0.07098 
 1184000   -3359.0348      656.347   -4015.3818    774.05682    14675.345   -19469.187    302.45991    558.06903      1.01445        0.592      0.18624      0.02448     -0.07104 
 1185000   -3370.4389    661.84904    -4032.288    735.20549    14691.683   -19464.095    304.99538   -346.15222    1.0115537       0.5925       0.1866      0.02445      -0.0711 
 1186000   -3297.8021    687.49772   -3985.2998    699.39188    14776.636   -19466.994    316.81489   -947.36764   0.99422277        0.593      0.18696      0.02442     -0.07116 
 1187000   -3357.2488    653.41462   -4010.6634    785.01118    14665.105   -19466.935    301.10861    620.22935    1.0078386       0.5935      0.18732      0.02439     -0.07122 
 1188000   -3353.8479    656.74051   -4010.5884    775.54033      14672.7   -19463.048    302.64125    349.51242   0.99265423        0.594      0.18768      0.02436     -0.07128 
 1189000   -3383.3296    630.80274   -4014.1323    746.64445    14697.417   -19464.567    290.68852   -193.37063    1.0130488       0.5945      0.18804      0.02433     -0.07134 
 1190000   -3404.6439    648.66178   -4053.3057    773.10497    14635.581   -19467.135    298.91839    -11.69502    1.0123525        0.595       0.1884       0.0243      -0.0714 
 1191000   -3355.1377     646.5603    -4001.698    711.02301    14747.798   -19467.003    297.94997   -719.42697    1.0167197       0.5955      0.18876      0.02427     -0.07146 
 1192000   -3352.4695    657.58196   -4010.0515    756.19814    14698.536   -19469.234    303.02901    52.822719    1.0071921        0.596      0.18912      0.02424     -0.07152 
 1193000   -3360.8152    648.17585   -4008.9911    774.04237    14679.234    -19468.19    298.69446    592.85429     1.014228       0.5965      0.18948      0.02421     -0.07158 
 1194000   -3394.6337    616.57798   -4011.2117    793.36086    14654.375   -19463.669    284.13343    686.88954    1.0179687        0.597      0.18984      0.02418     -0.07164 
 1195000     -3356.85    646.40689   -4003.2569    790.77475    14667.442   -19465.553    297.87928    924.96324    1.0135844       0.5975       0.1902      0.02415      -0.0717 
 1196000   -3391.3949    664.67219   -4056.0671    791.61287    14612.751   -19465.462    306.29635    938.73422    1.0382468        0.598      0.19056      0.02412     -0.07176 
 1197000   -3313.2141    663.65631   -3976.8704    773.56907     14709.22   -19464.777    305.82821    688.31373    1.0158637       0.5985      0.19092      0.02409     -0.07182 
 1198000   -3373.9279    660.83249   -4034.7604    746.02561    14681.397   -19468.293    304.52693   -396.46984     1.016725        0.599      0.19128      0.02406     -0.07188 
 1199000   -3416.0329    633.71663   -4049.7496    772.78676     14636.84   -19465.733    292.03131   -385.62584    1.0003988       0.5995      0.19164      0.02403     -0.07194 
 1200000   -3374.9714     647.1787   -4022.1501    792.99822    14644.691   -19463.344    298.23495    584.39486    1.0004848          0.6        0.192        0.024       -0.072 
 1201000   -3312.5376    646.23563   -3958.7732    782.88756    14719.231   -19467.893    297.80036    560.19616   0.99456275       0.6005      0.19236      0.02397     -0.07206 
 1202000    -3358.294    692.08794    -4050.382    729.34866     14683.53   -19469.205    318.93017   -389.78717    1.0075564        0.601      0.19272      0.02394     -0.07212 
 1203000   -3379.1607    635.14966   -4014.3103    777.45066    14667.985   -19467.491    292.69169    348.66432    1.0207561       0.6015      0.19308      0.02391     -0.07218 
 1204000   -3307.8043    689.91914   -3997.7234    767.88687    14697.569    -19469.24    317.93074    286.73648   0.99407134        0.602      0.19344      0.02388     -0.07224 
 1205000   -3305.0847    657.67866   -3962.7633    685.90591    14808.245    -19466.73    303.07357   -1145.3574    0.9900334       0.6025       0.1938      0.02385      -0.0723 
 1206000   -3364.2824    640.72834   -4005.0108    782.35448    14675.609   -19468.345    295.26247     526.2209   0.99913589        0.603      0.19416      0.02382     -0.07236 
 1207000   -3351.1853    655.14597   -4006.3313    697.97052    14754.389   -19463.736    301.90645   -1223.2467   0.99673968       0.6035      0.19452      0.02379     -0.07242 
 1208000   -3347.6384    649.74632   -3997.3848    753.39281     14711.28    -19469.16    299.41816  -0.47577275   0.98652045        0.604      0.19488      0.02376     -0.07248 
 1209000   -3348.2801    650.08678   -3998.3669    752.84383    14711.843   -19469.492    299.57506    481.07116     1.016477       0.6045      0.19524      0.02373     -0.07254 
 1210000   -3361.7961    637.25203   -3999.0481    704.15729    14759.595   -19466.576    293.66051   -853.09463    1.0164245        0.605       0.1956       0.0237      -0.0726 
 1211000   -3318.9235    672.60174   -3991.5252    665.17769    14807.629   -19469.486    309.95047   -1423.2995    1.0201931       0.6055      0.19596      0.02367     -0.07266 
 1212000   -3426.1762    615.54146   -4041.7176    785.08337    14637.314   -19466.736    283.65578    959.86686     1.034856        0.606      0.19632      0.02364     -0.07272 
 1213000   -3413.4583    653.21331   -4066.6717    739.46778    14656.243   -19467.715    301.01583   -777.37023    1.0149966       0.6065      0.19668      0.02361     -0.07278 
 1214000   -3448.8256    621.31895   -4070.1445    772.35178    14619.188   -19468.361    286.31817   -286.26176    1.0125681        0.607      0.19704      0.02358     -0.07284 
 1215000   -3359.6751    675.42257   -4035.0976    773.86763    14654.513   -19468.021    311.25038    454.10347    1.0184618       0.6075       0.1974      0.02355      -0.0729 
 1216000   -3394.5684    617.40983   -4011.9782     712.6108     14740.81   -19469.071    284.51676   -881.02984      1.01307        0.608      0.19776      0.02352     -0.07296 
 1217000   -3276.3885    687.24038   -3963.6289    726.56092    14772.575   -19468.595     316.6963    -8.419238    1.0189558       0.6085      0.19812      0.02349     -0.07302 
 1218000    -3334.423     647.7227   -3982.1457    749.29484    14728.586   -19466.444    298.48564    306.85372    1.0158413        0.609      0.19848      0.02346     -0.07308 
 1219000   -3318.2146    644.87429   -3963.0889    741.26966     14756.27   -19467.185    297.17302   -148.04317   0.99279964       0.6095      0.19884      0.02343     -0.07314 
 1220000   -3384.3378    663.50976   -4047.8476    735.93517    14680.577   -19468.018    305.76068   -617.32806    1.0157654         0.61       0.1992       0.0234      -0.0732 
 1221000   -3330.3672    686.20599   -4016.5732    807.16639    14640.699   -19467.731    316.21963    1176.5063    1.0109709       0.6105      0.19956      0.02337     -0.07326 
 1222000   -3368.5235    641.99002   -4010.5135    734.45502    14718.641   -19469.252    295.84388   -382.21913    1.0081454        0.611      0.19992      0.02334     -0.07332 
 1223000   -3345.9205    644.24855   -3990.1691     742.2579    14727.729   -19466.487    296.88467   -266.83192    1.0202377       0.6115      0.20028      0.02331     -0.07338 
 1224000    -3378.054      651.598    -4029.652    730.28309    14701.964   -19468.374    300.27147   -521.96602    1.0219501        0.612      0.20064      0.02328     -0.07344 
 1225000   -3404.5906    640.38705   -4044.9776    734.40014    14680.106   -19467.579     295.1052   -763.65832    1.0100601       0.6125        0.201      0.02325      -0.0735 
 1226000   -3395.1814    645.98856     -4041.17    774.75904    14648.111   -19468.747    297.68651    201.67338    1.0130067        0.613      0.20136      0.02322     -0.07356 
 1227000   -3301.8151    667.92389    -3969.739    712.76011    14779.307   -19466.579    307.79481   -444.55151    1.0161645       0.6135      0.20172      0.02319     -0.07362 
 1228000   -3364.7666    674.20702   -4038.9737    766.21554    14655.403    -19468.81    310.69022    228.86879    1.0181561        0.614      0.20208      0.02316     -0.07368 
 1229000    -3441.057    636.82257   -4077.8796    724.26279    14662.307   -19468.963     293.4626   -940.18105    1.0218792       0.6145      0.20244      0.02313     -0.07374 
 1230000   -3382.8489    640.68968   -4023.5386    714.94075    14726.154   -19469.168    295.24466   -978.85049    1.0014216        0.615       0.2028       0.0231      -0.0738 
 1231000   -3375.8745    675.10039   -4050.9748    775.54804    14635.342   -19466.514    311.10191    194.26177    1.0084751       0.6155      0.20316      0.02307     -0.07386 
 1232000    -3345.254    656.13946   -4001.3935    717.80525    14741.794   -19466.609    302.36427   -604.88622   0.99056159        0.616      0.20352      0.02304     -0.07392 
 1233000   -3353.5741    660.63757   -4014.2116    786.87896    14661.768   -19468.395    304.43711    576.93476    1.0000671       0.6165      0.20388      0.02301     -0.07398 
 1234000   -3400.3373    638.33796   -4038.6753    761.89634    14660.787   -19468.638    294.16093   -417.16648   0.99510005        0.617      0.20424      0.02298     -0.07404 
 1235000    -3411.495    644.93561   -4056.4306    780.35741    14622.621   -19467.372    297.20128   -316.13447    1.0014911       0.6175       0.2046      0.02295      -0.0741 
 1236000   -3454.8095    608.37343   -4063.1829     752.4941    14650.166   -19470.038    280.35258   -744.63487   0.99935866        0.618      0.20496      0.02292     -0.07416 
 1237000   -3362.8722    666.02986   -4028.9021    817.53177    14614.999    -19466.59      306.922    810.29117   0.99114325       0.6185      0.20532      0.02289     -0.07422 
 1238000   -3383.7093     662.0049   -4045.7142    813.63293    14601.739   -19465.715    305.06721    999.17862   0.99964576        0.619      0.20568      0.02286     -0.07428 
 1239000   -3404.7567    620.22867   -4024.9854    727.27969    14710.657   -19469.351    285.81575   -977.65992    1.0087633       0.6195      0.20604      0.02283     -0.07434 
 1240000   -3412.2005    636.52438   -4048.7249    746.87796    14669.201   -19469.105    293.32519   -486.57832   0.99979847         0.62       0.2064       0.0228      -0.0744 
 1241000   -3338.1583     640.3864   -3978.5447     774.6812    14709.691   -19468.207     295.1049    786.26629    1.0019868       0.6205      0.20676      0.02277     -0.07446 
 1242000   -3413.0473    643.46912   -4056.5164    797.18519    14608.879   -19469.333    296.52549    600.04438     1.011991        0.621      0.20712      0.02274     -0.07452 
 1243000   -3416.9978    632.91752   -4049.9153    835.70794    14576.302    -19468.13    291.66307    1193.9966   0.99504092       0.6215      0.20748      0.02271     -0.07458 
 1244000   -3392.3014    632.61786   -4024.9193    781.71447    14656.116   -19469.715    291.52497    456.18104    1.0169545        0.622      0.20784      0.02268     -0.07464 
 1245000    -3436.442    616.58613   -4053.0281    795.54306    14613.882    -19467.79    284.13718    162.19547    1.0057781       0.6225       0.2082      0.02265      -0.0747 
 1246000   -3442.4946    612.02368   -4054.5183    826.72612    14582.893   -19469.066     282.0347    1049.9296    1.0097432        0.623      0.20856      0.02262     -0.07476 
 1247000    -3373.334    641.69407    -4015.028    765.40993    14681.715   -19469.006     295.7075     302.8424    1.0069382       0.6235      0.20892      0.02259     -0.07482 
 1248000   -3427.6937    631.02077   -4058.7145    746.18086    14657.672    -19467.81      290.789   -572.59561    1.0041937        0.624      0.20928      0.02256     -0.07488 
 1249000   -3376.9608    670.45936   -4047.4201    750.23311    14662.856   -19466.188    308.96322   -445.27594   0.99129807       0.6245      0.20964      0.02253     -0.07494 
 1250000   -3436.6283    637.22368    -4073.852    810.42833    14580.895   -19470.996    293.64744    571.11863    1.0059832        0.625         0.21       0.0225       -0.075 
 1251000   -3388.1645    650.50851    -4038.673    757.63163    14665.198   -19466.139     299.7694   -67.022045    1.0141246       0.6255      0.21036      0.02247     -0.07506 
 1252000   -3295.6031    666.32861   -3961.9317    721.65667    14779.403   -19467.423    307.05967     56.94511    1.0200283        0.626      0.21072      0.02244     -0.07512 
 1253000    -3361.553    690.10361   -4051.6566     729.9053    14680.303   -19465.728    318.01574   -589.29247    1.0211846       0.6265      0.21108      0.02241     -0.07518 
 1254000   -3313.0275    659.92402   -3972.9515    689.13924    14796.313   -19466.733    304.10829   -1295.5554    1.0007285        0.627      0.21144      0.02238     -0.07524 
 1255000   -3389.7471    640.21884    -4029.966    726.26866    14706.349   -19469.234    295.02769   -1200.3538   0.99236073       0.6275       0.2118      0.02235      -0.0753 
 1256000   -3396.2424    622.41566   -4018.6581    734.94274    14706.801   -19466.963    286.82356   -937.67813   0.99438576        0.628      0.21216      0.02232     -0.07536 
 1257000   -3327.0038    659.60002   -3986.6039    786.34868    14688.483   -19466.347    303.95898    971.81289    1.0054503       0.6285      0.21252      0.02229     -0.07542 
 1258000   -3347.0782    660.14591   -4007.2241    742.43944    14713.294   -19466.139    304.21054   -302.88014    1.0066442        0.629      0.21288      0.02226     -0.07548 
 1259000   -3443.9358    618.06021    -4061.996    782.35146    14616.567   -19465.797    284.81647   -429.24204     0.981855       0.6295      0.21324      0.02223     -0.07554 
 1260000    -3393.592    678.87501    -4072.467    772.30753    14615.615   -19465.623    312.84134   -333.75933   0.99760451         0.63       0.2136       0.0222      -0.0756 
 1261000   -3377.1973    676.22947   -4053.4267    798.47893    14611.668   -19467.445    311.62222    554.89587    1.0133402       0.6305      0.21396      0.02217     -0.07566 
 1262000   -3429.6024    654.35641   -4083.9588    784.90442    14592.495   -19467.258    301.54261   -286.78159   0.99768006        0.631      0.21432      0.02214     -0.07572 
 1263000   -3356.1231    638.96023   -3995.0833    777.86026    14687.855   -19466.522    294.44768    835.34221      1.02191       0.6315      0.21468      0.02211     -0.07578 
 1264000   -3329.4064    653.14301   -3982.5494     750.3558    14729.585   -19469.007    300.98344    113.49388   0.99969773        0.632      0.21504      0.02208     -0.07584 
 1265000   -3359.4055    635.75043   -3995.1559    774.91923     14693.86   -19468.307    292.96854    485.99119   0.99754668       0.6325       0.2154      0.02205      -0.0759 
 1266000    -3454.899    625.80137   -4080.7004    787.85793    14591.154   -19467.608    288.38378    31.052435    1.0193362        0.633      0.21576      0.02202     -0.07596 
 1267000   -3407.2947    643.55275   -4050.8474    806.92105    14603.698   -19466.311    296.56403    867.21092    1.0169041       0.6335      0.21612      0.02199     -0.07602 
 1268000   -3297.7271    659.74552   -3957.4726    723.49552    14779.838   -19466.857    304.02603   -194.49271    1.0078838        0.634      0.21648      0.02196     -0.07608 
 1269000   -3371.0682    668.33031   -4039.3985     789.8982    14633.533   -19468.873     307.9821     497.7868    1.0059441       0.6345      0.21684      0.02193     -0.07614 
 1270000   -3336.8141    678.19141   -4015.0055     758.9107    14688.415   -19468.998    312.52632   -188.22276   0.99327011        0.635       0.2172       0.0219      -0.0762 
 1271000   -3363.6175     636.0795    -3999.697    776.88582     14687.79   -19468.848    293.12018    49.797174     1.002236       0.6355      0.21756      0.02187     -0.07626 
 1272000    -3311.388    658.07424   -3969.4622    805.53099    14687.043   -19467.661    303.25587    1604.3654    1.0138123        0.636      0.21792      0.02184     -0.07632 
 1273000   -3333.1585    651.92021   -3985.0787    754.48745    14722.056   -19466.684    300.41995    436.55028    1.0151007       0.6365      0.21828      0.02181     -0.07638 
 1274000   -3367.3783    634.50519   -4001.8835    698.52625    14758.346   -19466.743     292.3947    -980.6988    1.0249951        0.637      0.21864      0.02178     -0.07644 
 1275000   -3370.8482    667.18108   -4038.0292    789.72353    14629.034   -19465.595    307.45251    569.68192    1.0185183       0.6375        0.219      0.02175      -0.0765 
 1276000   -3451.4665    638.29699   -4089.7635    779.28898    14594.731   -19468.056    294.14205    403.66303    1.0515779        0.638      0.21936      0.02172     -0.07656 
 1277000   -3368.1411    633.34079   -4001.4819    747.49017    14712.586   -19468.497    291.85812    198.02142    1.0239182       0.6385      0.21972      0.02169     -0.07662 
 1278000   -3381.8258    643.10818    -4024.934    724.03643    14714.889   -19469.158    296.35916   -745.19742    1.0212923        0.639      0.22008      0.02166     -0.07668 
 1279000   -3365.4922    646.49308   -4011.9853      681.738    14768.105   -19467.396      297.919   -1748.1915   0.99081815       0.6395      0.22044      0.02163     -0.07674 
 1280000   -3293.1504    653.32915   -3946.4796    760.39962    14753.333    -19466.36    301.06922    537.06343    1.0135379         0.64       0.2208       0.0216      -0.0768 
 1281000   -3364.1776    641.27812   -4005.4557    755.83093    14700.835   -19467.988    295.51582   -273.69287    1.0113454       0.6405      0.22116      0.02157     -0.07686 
 1282000   -3332.3078    651.64988   -3983.9577    758.59449    14715.856   -19464.223    300.29537   -72.542845    1.0014742        0.641      0.22152      0.02154     -0.07692 
 1283000   -3336.0994    700.88914   -4036.9885     767.1277    14658.445   -19468.512    322.98596    155.01894    1.0267161       0.6415      0.22188      0.02151     -0.07698 
 1284000   -3412.5799    646.45618   -4059.0361    773.29689    14631.045   -19469.877    297.90199    172.01581    1.0298336        0.642      0.22224      0.02148     -0.07704 
 1285000   -3407.8267    645.69761   -4053.5243    751.04633    14658.925   -19469.089    297.55243    32.087967    1.0230953       0.6425       0.2226      0.02145      -0.0771 
 1286000   -3335.7092    666.54167   -4002.2509    809.29792    14650.041   -19467.064    307.15785    1512.0472    1.0274418        0.643      0.22296      0.02142     -0.07716 
 1287000   -3361.8822    662.26014   -4024.1424    815.35958    14622.934   -19468.822    305.18482    995.35239   0.99782911       0.6435      0.22332      0.02139     -0.07722 
 1288000   -3285.2196    659.74384   -3944.9634    765.20425    14749.051   -19467.469    304.02525     160.4903   0.98539566        0.644      0.22368      0.02136     -0.07728 
 1289000   -3319.6752    662.89582    -3982.571    714.79106    14763.545   -19466.766    305.47776   -493.95915    1.0102044       0.6445      0.22404      0.02133     -0.07734 
 1290000   -3342.8841    642.62234   -3985.5064    735.45449    14740.827   -19467.081    296.13527   -446.16429    1.0043328        0.645       0.2244       0.0213      -0.0774 
 1291000   -3408.0972     620.6465   -4028.7437    751.77526    14682.652   -19467.411     286.0083   -206.18508    1.0092415       0.6455      0.22476      0.02127     -0.07746 
 1292000   -3357.8755    644.19205   -4002.0675    704.78493    14752.368   -19464.948    296.85863   -783.07552    1.0175556        0.646      0.22512      0.02124     -0.07752 
 1293000   -3389.2462    657.14379     -4046.39    819.67576    14593.369   -19464.222    302.82709    863.29359    1.0164131       0.6465      0.22548      0.02121     -0.07758 
 1294000   -3362.8665     632.2025    -3995.069    750.26518    14719.029   -19467.606    291.33357    482.73656    1.0271914        0.647      0.22584      0.02118     -0.07764 
 1295000   -3340.4113    656.87918   -3997.2905     727.8709    14734.873   -19465.617    302.70516   -215.64887    1.0114725       0.6475       0.2262      0.02115      -0.0777 
 1296000   -3356.7948    676.74406   -4033.5388    751.18913     14677.85   -19467.461    311.85935    -63.31593     1.011259        0.648      0.22656      0.02112     -0.07776 
 1297000   -3358.3994    654.51943   -4012.9188    760.79871    14689.135   -19468.948    301.61773    113.68952    1.0151893       0.6485      0.22692      0.02109     -0.07782 
 1298000   -3357.8272    660.71682    -4018.544    859.01004    14581.412     -19466.5    304.47363    2405.6509    1.0302973        0.649      0.22728      0.02106     -0.07788 
 1299000   -3341.4472    677.15452   -4018.6017    748.61398    14693.802   -19466.788     312.0485   -482.03354   0.98812323       0.6495      0.22764      0.02103     -0.07794 
 1300000   -3388.1326    657.54231   -4045.6749    816.05775    14599.922    -19467.94    303.01074     927.5247   0.99580556         0.65        0.228        0.021       -0.078 
 1301000   -3331.6702    653.63586   -3985.3061    775.80662    14700.593   -19466.909    301.21056    448.91808   0.99478784       0.6505      0.22836      0.02097     -0.07806 
 1302000   -3382.2203    647.59786   -4029.8182    760.98382    14667.894   -19465.302    298.42811   -264.72559   0.98489048        0.651      0.22872      0.02094     -0.07812 
 1303000   -3350.3633    627.20074    -3977.564    741.26583    14742.665    -19466.74    289.02864    -279.4176   0.99060915       0.6515      0.22908      0.02091     -0.07818 
 1304000   -3418.3136    652.35735    -4070.671    724.45349    14669.443   -19468.362    300.62139   -1070.4234    1.0084213        0.652      0.22944      0.02088     -0.07824 
 1305000   -3398.2499    638.31135   -4036.5612    771.16381    14655.602   -19468.674    294.14867   -141.41539    1.0019534       0.6525       0.2298      0.02085      -0.0783 
 1306000   -3344.7091     664.8971   -4009.6062     757.8249    14694.594   -19467.726        306.4   -242.06808   0.99787601        0.653      0.23016      0.02082     -0.07836 
 1307000   -3342.0121    643.03363   -3985.0457     726.7616    14752.321     -19468.8     296.3248   -620.36968    1.0084434       0.6535      0.23052      0.02079     -0.07842 
 1308000   -3381.0551     662.4268   -4043.4819    737.74908    14680.756   -19469.192    305.26163   -227.12331    1.0286081        0.654      0.23088      0.02076     -0.07848 
 1309000    -3321.644    658.92356   -3980.5676    745.74807    14736.848   -19468.692    303.64725    -44.65994    0.9999542       0.6545      0.23124      0.02073     -0.07854 
 1310000   -3299.6856    686.05724   -3985.7428    759.64274    14718.472   -19469.369    316.15108    480.80853     1.014368        0.655       0.2316       0.0207      -0.0786 
 1311000   -3394.9986    645.74423   -4040.7428    809.97554    14610.029   -19467.992    297.57391    534.90677    1.0018078       0.6555      0.23196      0.02067     -0.07866 
 1312000   -3395.4466    617.54934    -4012.996     731.3065     14717.26   -19467.996    284.58105   -597.49261    1.0028674        0.656      0.23232      0.02064     -0.07872 
 1313000   -3334.6455    658.75587   -3993.4014    771.25707    14697.315   -19469.013    303.56998    226.82812    1.0161333       0.6565      0.23268      0.02061     -0.07878 
 1314000   -3385.5695    631.45638   -4017.0259    784.05694    14661.191   -19469.031    290.98974    467.89423    1.0068197        0.657      0.23304      0.02058     -0.07884 
 1315000   -3376.7812     682.9418    -4059.723    747.09994    14657.716   -19468.659    314.71541   -398.48504     1.007446       0.6575       0.2334      0.02055      -0.0789 
 1316000    -3383.478    658.18939   -4041.6674    784.78789    14637.983   -19468.479    303.30893    160.38253   0.99565899        0.658      0.23376      0.02052     -0.07896 
 1317000   -3409.4569    643.53277   -4052.9897    807.05756    14604.874   -19469.902    296.55482    1122.1732    1.0233561       0.6585      0.23412      0.02049     -0.07902 
 1318000   -3369.0801    677.13287    -4046.213    760.93214    14656.527   -19468.978    312.03852    128.75681    1.0205242        0.659      0.23448      0.02046     -0.07908 
 1319000    -3405.694    622.22414   -4027.9181    713.51512    14719.664   -19465.719    286.73531   -1138.3778   0.98932201       0.6595      0.23484      0.02043     -0.07914 
 1320000   -3403.3447    631.23602   -4034.5807    789.02649    14638.949    -19468.17    290.88819      470.764    1.0092197         0.66       0.2352       0.0204      -0.0792 
 1321000   -3396.7774    611.89884   -4008.6762    747.31061    14710.331   -19470.915    281.97717     253.9402    1.0265008       0.6605      0.23556      0.02037     -0.07926 
 1322000   -3430.4569    640.95485   -4071.4118    782.95329    14608.423   -19469.435    295.36685   -90.099009   0.99768699        0.661      0.23592      0.02034     -0.07932 
 1323000   -3333.3488    675.46064   -4008.8095    742.91447    14712.648   -19469.301    311.26792   -571.16924   0.99252106       0.6615      0.23628      0.02031     -0.07938 
 1324000   -3377.6672    657.63906   -4035.3062    732.39107    14693.607   -19468.241    303.05533   -1162.2326   0.97293456        0.662      0.23664      0.02028     -0.07944 
 1325000   -3366.8043    690.46094   -4057.2653    764.62396    14639.893   -19468.699    318.18041   -278.45791   0.99730953       0.6625        0.237      0.02025      -0.0795 
 1326000    -3374.111    641.78777   -4015.8988    722.59203    14728.681   -19471.105    295.75068   -567.47081    1.0144251        0.663      0.23736      0.02022     -0.07956 
 1327000    -3382.322    615.41297    -3997.735    754.32399    14710.124    -19468.88    283.59656     -111.154    1.0107838       0.6635      0.23772      0.02019     -0.07962 
 1328000   -3386.9807     610.1849   -3997.1656    752.14843    14714.445   -19468.923    281.18735   -519.93762   0.98034023        0.664      0.23808      0.02016     -0.07968 
 1329000   -3367.1504    669.56497   -4036.7154     806.9244    14621.919   -19469.731    308.55106    822.49918    1.0035088       0.6645      0.23844      0.02013     -0.07974 
 1330000   -3310.2396    650.00388   -3960.2435    734.43179    14770.044   -19467.837    299.53686   -231.00722   0.99281187        0.665       0.2388       0.0201      -0.0798 
 1331000   -3424.3161    635.38321   -4059.6993    764.63296    14639.285   -19468.606    292.79931   -483.66535   0.99814021       0.6655      0.23916      0.02007     -0.07986 
 1332000   -3367.9546    667.43626   -4035.3908    753.05811    14677.174    -19470.32     307.5701    -120.1377   0.99764737        0.666      0.23952      0.02004     -0.07992 
 1333000   -3395.2849    636.20992   -4031.4948    775.52118    14656.296   -19469.304    293.18028   -137.98182     0.995571       0.6665      0.23988      0.02001     -0.07998 
 1334000   -3378.8796    650.30385   -4029.1835    780.09809    14652.134   -19468.985    299.67509    101.88217   0.98401798        0.667      0.24024      0.01998     -0.08004 
 1335000   -3395.8465    645.94434   -4041.7908    819.25561    14599.304    -19468.93    297.66613    685.19563   0.98063471       0.6675       0.2406      0.01995      -0.0801 
 1336000   -3388.1605    639.33713   -4027.4976    736.89972    14696.871   -19467.812    294.62137   -730.24707   0.99717627        0.668      0.24096      0.01992     -0.08016 
 1337000   -3350.1381    649.63611   -3999.7742    750.57783    14711.145   -19467.344    299.36738   -390.08971   0.97943549       0.6685      0.24132      0.01989     -0.08022 
 1338000   -3340.7095    679.01715   -4019.7267    780.19827    14665.757   -19468.208    312.90685    640.48117    1.0166812        0.669      0.24168      0.01986     -0.08028 
 1339000   -3339.9523    616.36272    -3956.315    693.65412    14815.379   -19469.614    284.03423   -1118.2133    1.0038272       0.6695      0.24204      0.01983     -0.08034 
 1340000   -3401.0805    637.09033   -4038.1709    745.45405     14682.57   -19471.342      293.586   -323.33753    1.0130913         0.67       0.2424       0.0198      -0.0804 
 1341000   -3390.1649    643.65684   -4033.8217    828.13497    14602.417    -19471.19    296.61199    1443.4064    1.0136097       0.6705      0.24276      0.01977     -0.08046 
 1342000   -3348.8865    631.96219   -3980.8487    796.43763    14684.877   -19469.809    291.22283    862.42428   0.99581729        0.671      0.24312      0.01974     -0.08052 
 1343000   -3380.2959    628.08089   -4008.3768    791.90004    14662.318   -19468.226    289.43424    669.58555    1.0091661       0.6715      0.24348      0.01971     -0.08058 
 1344000   -3365.7728    648.50007   -4014.2729    797.40344    14653.583   -19469.728    298.84387    876.38348    1.0031262        0.672      0.24384      0.01968     -0.08064 
 1345000   -3360.8452    631.17398   -3992.0192    744.80075    14723.254   -19467.904     290.8596   -73.744792    1.0046012       0.6725       0.2442      0.01965      -0.0807 
 1346000   -3376.2134    631.31475   -4007.5282    751.28733    14703.071   -19470.124    290.92447    -271.5652    1.0043896        0.673      0.24456      0.01962     -0.08076 
 1347000    -3359.781    637.91815   -3997.6992    729.01175    14737.467   -19468.657    293.96747   -361.35477   0.99045572       0.6735      0.24492      0.01959     -0.08082 
 1348000   -3324.4839    676.46906    -4000.953    700.39625    14759.666   -19467.785    311.73263   -1401.2741   0.97841059        0.674      0.24528      0.01956     -0.08088 
 1349000   -3346.8258    659.67336   -4006.4992     785.1933    14668.464    -19466.25    303.99278    549.15498   0.99926358       0.6745      0.24564      0.01953     -0.08094 
 1350000   -3313.9477     681.7641   -3995.7118    741.04813    14724.332    -19467.47     314.1727   -130.89372     1.013717        0.675        0.246       0.0195       -0.081 
 1351000   -3345.5411    689.53962   -4035.0807    750.67724    14677.765   -19469.813    317.75584    80.001351    1.0110693       0.6755      0.24636      0.01947     -0.08106 
 1352000   -3400.0982    653.95894   -4054.0571    719.98958    14689.576   -19469.616    301.35944   -962.94857    1.0059111        0.676      0.24672      0.01944     -0.08112 
 1353000   -3384.1425    651.14882   -4035.2913    822.53601    14605.539   -19467.866    300.06447    1339.2898    1.0293921       0.6765      0.24708      0.01941     -0.08118 
 1354000   -3349.6898    658.50456   -4008.1943     694.9472    14754.662   -19465.829    303.45417   -1284.2019    1.0028539        0.677      0.24744      0.01938     -0.08124 
 1355000   -3454.6698    612.67666   -4067.3464    745.17501    14653.649   -19471.125    282.33561    -320.6468    1.0266625       0.6775       0.2478      0.01935      -0.0813 
 1356000   -3363.7585    661.03213   -4024.7907    828.35157    14607.916   -19469.037    304.61893    1686.0698    1.0289767        0.678      0.24816      0.01932     -0.08136 
 1357000   -3380.2068    682.22757   -4062.4344    748.50612    14647.853   -19465.637    314.38628   -900.84833     0.992446       0.6785      0.24852      0.01929     -0.08142 
 1358000   -3314.6354     665.2813   -3979.9167     714.4198    14771.249   -19470.066    306.57705   -726.38095    0.9935151        0.679      0.24888      0.01926     -0.08148 
 1359000   -3414.7462    614.05822   -4028.8044    822.37284    14612.333   -19469.926    282.97226    1279.9924    1.0145195       0.6795      0.24924      0.01923     -0.08154 
 1360000   -3340.4314    647.62462    -3988.056    723.40249    14748.682   -19467.294    298.44044   -554.03151    1.0003389         0.68       0.2496       0.0192      -0.0816 
 1361000   -3371.9745    661.12655   -4033.1011    761.66438    14668.644   -19468.966    304.66244    297.46809    1.0200619       0.6805      0.24996      0.01917     -0.08166 
 1362000   -3376.3492    645.65861   -4022.0078    752.34996    14690.011   -19471.098    297.53445    -84.24905    1.0100239        0.681      0.25032      0.01914     -0.08172 
 1363000   -3379.4924    631.04388   -4010.5363     705.7736    14747.347   -19468.064    290.79965   -1585.4114   0.98665114       0.6815      0.25068      0.01911     -0.08178 
 1364000   -3360.3678    661.60509   -4021.9729    772.27998    14669.085   -19469.258    304.88296    252.30658    1.0164751        0.682      0.25104      0.01908     -0.08184 
 1365000   -3385.0528    645.56951   -4030.6224    811.92918    14619.999   -19469.687     297.4934     1383.054    1.0277229       0.6825       0.2514      0.01905      -0.0819 
 1366000   -3387.8826    640.01617   -4027.8988    752.46815    14680.537   -19468.782    294.93429   -127.41647    1.0282953        0.683      0.25176      0.01902     -0.08196 
 1367000   -3333.3713    667.79109   -4001.1624    715.38386    14742.888    -19465.09    307.73362   -690.60113    1.0187293       0.6835      0.25212      0.01899     -0.08202 
 1368000   -3335.7429    646.95484   -3982.6977    719.86704    14757.374   -19466.048    298.13179   -733.47539   0.99253399        0.684      0.25248      0.01896     -0.08208 
 1369000   -3380.2305    639.50659   -4019.7371    708.99984    14731.516   -19465.514    294.69946   -1101.4512   0.99943824       0.6845      0.25284      0.01893     -0.08214 
 1370000   -3302.7713    643.16025   -3945.9316    747.81621    14766.447   -19466.638    296.38315    230.77691    1.0082303        0.685       0.2532       0.0189      -0.0822 
 1371000   -3361.0898    643.67356   -4004.7633    791.34256    14666.825   -19468.531     296.6197    805.90093    1.0199472       0.6855      0.25356      0.01887     -0.08226 
 1372000   -3329.7824    634.65595   -3964.4384    742.14709    14758.137   -19470.281    292.46417    428.83975    1.0175508        0.686      0.25392      0.01884     -0.08232 
 1373000   -3339.1445    647.50878   -3986.6532    733.01249     14738.56     -19467.5    298.38705    39.476593    1.0168581       0.6865      0.25428      0.01881     -0.08238 
 1374000   -3299.1815     689.4436   -3988.6251    711.63801    14763.684   -19468.384     317.7116    -931.7557   0.99157843        0.687      0.25464      0.01878     -0.08244 
 1375000   -3341.4099    635.56671   -3976.9767    800.07314    14684.148   -19468.805    292.88388    1440.1607    1.0091013       0.6875        0.255      0.01875      -0.0825 
 1376000   -3388.9789    653.62882   -4042.6078    764.31089      14657.7   -19469.208    301.20731   -50.125435    1.0056487        0.688      0.25536      0.01872     -0.08256 
 1377000   -3371.1137    681.93174   -4053.0454    805.99353    14605.896   -19469.049    314.24995    644.22696    1.0110718       0.6885      0.25572      0.01869     -0.08262 
 1378000    -3323.253    666.13424   -3989.3872    714.85452    14756.881   -19469.765     306.9701   -315.80939    1.0101767        0.689      0.25608      0.01866     -0.08268 
 1379000   -3403.5825    628.71861   -4032.3011    765.88284    14663.591   -19465.541    289.72811   -307.01013   0.99890992       0.6895      0.25644      0.01863     -0.08274 
 1380000   -3348.3697    650.57686   -3998.9466    796.65374    14665.523   -19467.614     299.8009    719.68533    1.0032973         0.69       0.2568       0.0186      -0.0828 
 1381000   -3420.9552    613.01386    -4033.969    760.51147    14669.503   -19468.774      282.491   -178.43889    1.0044961       0.6905      0.25716      0.01857     -0.08286 
 1382000   -3354.7275    659.04108   -4013.7686    757.81749    14689.019   -19467.542    303.70141    134.00685    1.0040056        0.691      0.25752      0.01854     -0.08292 
 1383000   -3392.9347    626.15159   -4019.0863    745.55014    14699.339   -19469.155    288.54517   -447.06501   0.99865606       0.6915      0.25788      0.01851     -0.08298 
 1384000   -3315.8758     671.8812    -3987.757    725.43255     14747.69   -19465.196    309.61843   -714.10742   0.99798653        0.692      0.25824      0.01848     -0.08304 
 1385000   -3325.7125    671.39291   -3997.1054    736.40764    14727.958   -19467.811    309.39342    291.05687    1.0253367       0.6925       0.2586      0.01845      -0.0831 
 1386000   -3379.8727    633.07526    -4012.948    748.06382    14700.166    -19467.19    291.73576   -296.48444    1.0084156        0.693      0.25896      0.01842     -0.08316 
 1387000   -3296.1634    681.69039   -3977.8538    691.51873    14792.079   -19468.322    314.13873   -1304.4935   0.99637006       0.6935      0.25932      0.01839     -0.08322 
 1388000   -3411.5069    645.09433   -4056.6012    733.47967    14673.265   -19469.839    297.27442   -1013.1536   0.99854595        0.694      0.25968      0.01836     -0.08328 
 1389000   -3422.0907     637.8306   -4059.9213    817.22818    14585.005   -19467.849    293.92713    492.62077   0.99042096       0.6945      0.26004      0.01833     -0.08334 
 1390000    -3413.603    656.51209   -4070.1151    816.68549    14573.424    -19466.47    302.53599    658.30416    1.0084294        0.695       0.2604       0.0183      -0.0834 
 1391000   -3328.3246    659.73108   -3988.0557    770.59025     14706.88   -19471.747    304.01938    305.76577   0.98745456       0.6955      0.26076      0.01827     -0.08346 
 1392000   -3378.5205    657.64422   -4036.1647    804.26023     14620.69   -19468.011     303.0577     524.6801   0.98786755        0.696      0.26112      0.01824     -0.08352 
 1393000   -3280.6934    673.40332   -3954.0967    716.45368    14790.503    -19467.08    310.31986   -591.08819   0.99240326       0.6965      0.26148      0.01821     -0.08358 
 1394000   -3376.2211    649.30552   -4025.5266    750.30827    14688.755    -19469.89    299.21504   -500.56303    1.0001808        0.697      0.26184      0.01818     -0.08364 
 1395000   -3293.6804    649.45009   -3943.1305    729.31512    14785.492   -19464.876    299.28166   -59.895178   0.98799182       0.6975       0.2622      0.01815      -0.0837 
 1396000   -3317.5955    665.71548    -3983.311    703.20681      14776.9   -19468.602    306.77713    -1234.076   0.96404699        0.698      0.26256      0.01812     -0.08376 
 1397000   -3426.1259    628.08881   -4054.2147    767.18868    14645.927   -19470.142    289.43788   -265.98428    1.0035963       0.6985      0.26292      0.01809     -0.08382 
 1398000   -3261.8892    687.64838   -3949.5376    739.36525    14770.155   -19464.728    316.88432    237.67662   0.98963162        0.699      0.26328      0.01806     -0.08388 
 1399000   -3339.5507    632.51935     -3972.07    760.53963    14730.625     -19467.8    291.47958    511.85864   0.99836213       0.6995      0.26364      0.01803     -0.08394 
 1400000   -3402.9608    584.73869   -3987.6995    785.96158    14688.428   -19466.743    269.46115    936.12286    1.0237096          0.7        0.264        0.018       -0.084 
 1401000   -3332.5063    653.95302   -3986.4593    663.66884    14813.333    -19468.23    301.35671   -2175.9069   0.98510427       0.7005      0.26436      0.01797     -0.08406 
 1402000   -3308.9386    682.20844   -3991.1471     657.4581    14815.499   -19468.436    314.37747   -1524.4313   0.98420096        0.701      0.26472      0.01794     -0.08412 
 1403000   -3425.1227    633.66253   -4058.7852    740.89616     14662.96   -19468.877    292.00638   -703.65296     1.007667       0.7015      0.26508      0.01791     -0.08418 
 1404000    -3406.852    676.79907   -4083.6511    777.11282    14604.317   -19471.184     311.8847   -390.79948   0.99144646        0.702      0.26544      0.01788     -0.08424 
 1405000    -3405.707    642.64546   -4048.3525    803.01394    14613.849   -19471.089    296.14593    555.90338    1.0010301       0.7025       0.2658      0.01785      -0.0843 
 1406000   -3297.5288    661.08486   -3958.6137    727.81063    14776.513   -19468.749    304.64323   -278.78231   0.99778742        0.703      0.26616      0.01782     -0.08436 
 1407000   -3308.7273    659.52901   -3968.2563     777.5928    14716.865   -19467.502    303.92626     222.9196   0.98928027       0.7035      0.26652      0.01779     -0.08442 
 1408000   -3319.6663    675.36543   -3995.0317    789.94066    14678.333   -19469.224    311.22405    679.34368   0.99313384        0.704      0.26688      0.01776     -0.08448 
 1409000   -3335.1225    684.52019   -4019.6427     770.0722     14672.07   -19469.921    315.44277    490.08103    1.0089884       0.7045      0.26724      0.01773     -0.08454 
 1410000   -3336.3146    663.21239   -3999.5269    756.44098    14706.105   -19469.518    305.62364   -86.885425    1.0008558        0.705       0.2676       0.0177      -0.0846 
 1411000   -3359.5453    650.27738   -4009.8227    706.40542    14750.231   -19471.481    299.66289   -1676.9001   0.96802953       0.7055      0.26796      0.01767     -0.08466 
 1412000   -3430.5648    634.62773   -4065.1925    810.43351    14587.189   -19465.687    292.45117    683.65059    1.0063812        0.706      0.26832      0.01764     -0.08472 
 1413000   -3370.3787    680.90734    -4051.286    745.54545     14669.93   -19470.653    313.77789   -897.24219   0.99097321       0.7065      0.26868      0.01761     -0.08478 
 1414000   -3399.5144    652.88593   -4052.4003    731.33904    14677.272   -19467.812    300.86497   -1203.9403   0.99416666        0.707      0.26904      0.01758     -0.08484 
 1415000   -3379.1512    696.14703   -4075.2983    787.27466     14599.55     -19469.1    320.80069   -100.96683   0.99251061       0.7075       0.2694      0.01755      -0.0849 
 1416000   -3339.6638    665.87647   -4005.5403    719.62898    14740.791   -19469.031    306.85131   -448.68813    1.0073093        0.708      0.26976      0.01752     -0.08496 
 1417000   -3354.2994    654.24778   -4008.5472    753.13269    14700.846   -19467.727    301.49255    264.46829    1.0260899       0.7085      0.27012      0.01749     -0.08502 
 1418000   -3348.8863    658.20886   -4007.0951     760.9618    14694.835   -19469.694     303.3179    616.19905    1.0180717        0.709      0.27048      0.01746     -0.08508 
 1419000   -3388.9408    645.79455   -4034.7354    790.69452    14638.099   -19466.998     297.5971    847.73606    1.0180569       0.7095      0.27084      0.01743     -0.08514 
 1420000   -3352.3445    669.55959   -4021.9041    790.02784    14652.346   -19467.168    308.54858    753.93166    1.0151605         0.71       0.2712       0.0174      -0.0852 
 1421000   -3342.3439    680.33602   -4022.6799    711.68261    14726.542   -19468.922    313.51461   -793.75833    1.0205562       0.7105      0.27156      0.01737     -0.08526 
 1422000   -3377.0744    624.82958    -4001.904    734.82469    14726.461   -19468.838    287.93596    61.669145    1.0251593        0.711      0.27192      0.01734     -0.08532 
 1423000   -3384.9886    626.29473   -4011.2833    791.67312    14660.194   -19469.487    288.61113    578.37597    1.0115373       0.7115      0.27228      0.01731     -0.08538 
 1424000   -3329.5233    675.39566    -4004.919    786.62029    14671.212   -19468.781    311.23798    761.29867    1.0135025        0.712      0.27264      0.01728     -0.08544 
 1425000   -3344.1216    642.05336    -3986.175    784.10516    14688.676   -19467.585    295.87307    822.45359   0.98621041       0.7125        0.273      0.01725      -0.0855 
 1426000   -3321.3254    640.56382   -3961.8893    686.53632    14816.981   -19470.408    295.18666   -1340.5241   0.98600787        0.713      0.27336      0.01722     -0.08556 
 1427000   -3335.1201    639.09186    -3974.212    735.46353    14751.398   -19467.197    294.50835   -487.00353   0.99589584       0.7135      0.27372      0.01719     -0.08562 
 1428000    -3243.719    714.20566   -3957.9246    768.54168     14737.03   -19470.378    329.12253    962.34559    1.0071769        0.714      0.27408      0.01716     -0.08568 
 1429000   -3432.0938    649.83316    -4081.927    740.41614    14638.298   -19466.498    299.45819   -1129.0708    1.0074157       0.7145      0.27444      0.01713     -0.08574 
 1430000   -3385.4844    649.79641   -4035.2808    691.54488    14732.554   -19467.707    299.44125   -1313.9042    1.0250026        0.715       0.2748       0.0171      -0.0858 
 1431000   -3401.1123    633.84414   -4034.9565    772.47533    14655.333   -19469.782    292.09007    463.01923    1.0181392       0.7155      0.27516      0.01707     -0.08586 
 1432000   -3333.7231    661.88518   -3995.6083    747.81308    14720.584   -19468.391    305.01204   -179.67614   0.99569181        0.716      0.27552      0.01704     -0.08592 
 1433000   -3336.1373    634.64776   -3970.7851    725.37707    14767.711   -19470.293     292.4604   -332.85289    1.0120662       0.7165      0.27588      0.01701     -0.08598 
 1434000   -3382.5196    655.02286   -4037.5425    727.97021    14699.422    -19472.01    301.84972    -50.42742    1.0368336        0.717      0.27624      0.01698     -0.08604 
 1435000   -3432.3428    634.16147   -4066.5043    794.33486    14600.919    -19469.04    292.23631    400.27166    1.0150748       0.7175       0.2766      0.01695      -0.0861 
 1436000   -3325.0708    697.06185   -4022.1326     826.6884    14616.827   -19470.932    321.22226    1712.7809    1.0203143        0.718      0.27696      0.01692     -0.08616 
 1437000   -3456.3313    607.53771    -4063.869    696.50719    14701.663   -19469.658    279.96746   -1984.8195    1.0020649       0.7185      0.27732      0.01689     -0.08622 
 1438000   -3372.0873    675.80366    -4047.891     779.9111    14634.968   -19470.185    311.42599    651.22775    1.0320194        0.719      0.27768      0.01686     -0.08628 
 1439000   -3385.2153    640.28112   -4025.4964    777.60252    14659.315   -19471.438    295.05638    493.12167    1.0032822       0.7195      0.27804      0.01683     -0.08634 
 1440000   -3369.2398    642.85447   -4012.0943    783.85931    14659.773   -19465.279    296.24224    842.19209    1.0319448         0.72       0.2784       0.0168      -0.0864 
 1441000   -3337.2723    666.45862   -4003.7309    724.12043    14732.494   -19467.702    307.11958   -516.42907     1.016442       0.7205      0.27876      0.01677     -0.08646 
 1442000   -3393.5425    635.62897   -4029.1714    741.79762     14693.28   -19469.741    292.91256   -376.69612    1.0121009        0.721      0.27912      0.01674     -0.08652 
 1443000   -3347.2416    650.75304   -3997.9946     749.0677    14713.881   -19469.205    299.88209   -256.70012    1.0080403       0.7215      0.27948      0.01671     -0.08658 
 1444000   -3418.1264    628.43655    -4046.563    816.29626    14598.974   -19468.018    289.59813    883.22197    1.0096417        0.722      0.27984      0.01668     -0.08664 
 1445000   -3305.9246    647.34644   -3953.2711    706.80954    14803.063   -19469.625    298.31224   -290.20941   0.99523862       0.7225       0.2802      0.01665      -0.0867 
 1446000   -3255.5277    641.78553   -3897.3132    725.16196     14841.08   -19468.994    295.74965   -38.401526   0.97831166        0.723      0.28056      0.01662     -0.08676 
 1447000   -3347.0419    658.35079   -4005.3927    710.47598    14749.517   -19471.385    303.38331   -1079.1845   0.99755366       0.7235      0.28092      0.01659     -0.08682 
 1448000   -3310.5766    699.18357   -4009.7602    771.30635    14678.613   -19469.658        322.2    108.01029   0.98538895        0.724      0.28128      0.01656     -0.08688 
 1449000   -3411.1143     635.9268   -4047.0411    823.94038    14591.615   -19471.328    293.04981    1092.5034    1.0118707       0.7245      0.28164      0.01653     -0.08694 
 1450000     -3342.22     679.2358   -4021.4558    748.72828    14692.998   -19470.062     313.0076   -424.89896    1.0006777        0.725        0.282       0.0165       -0.087 
 1451000   -3366.4155    639.80714   -4006.2226    741.86549    14719.139   -19471.337    294.83796    23.364699    1.0019549       0.7255      0.28236      0.01647     -0.08706 
 1452000   -3373.3575    657.50712   -4030.8646    765.83792     14667.47   -19470.662    302.99452   -41.283157   0.98636203        0.726      0.28272      0.01644     -0.08712 
 1453000   -3364.5182    661.35426   -4025.8725    733.44649    14705.092   -19470.878    304.76738   -900.03502   0.99449512       0.7265      0.28308      0.01641     -0.08718 
 1454000    -3429.461    643.29813   -4072.7591    823.32713    14568.632    -19470.54    296.44669    862.00971    1.0106147        0.727      0.28344      0.01638     -0.08724 
 1455000   -3351.8597    701.19187   -4053.0515     778.7714    14628.555   -19467.423    323.12547    550.28802    1.0270286       0.7275       0.2838      0.01635      -0.0873 
 1456000   -3294.6631    674.05202   -3968.7151    768.00772    14723.459    -19469.33    310.61879    458.52029    1.0052605        0.728      0.28416      0.01632     -0.08736 
 1457000   -3348.3966    636.94781   -3985.3444    733.12722    14746.771   -19471.507    293.52032   -688.78305   0.97170934       0.7285      0.28452      0.01629     -0.08742 
 1458000   -3397.5444    660.84747   -4058.3918    766.05507    14641.954   -19471.161    304.53383   -546.34555   0.98990416        0.729      0.28488      0.01626     -0.08748 
 1459000   -3345.0366    632.60661   -3977.6432    753.64683    14729.446   -19467.663    291.51979    87.241232   0.99780283       0.7295      0.28524      0.01623     -0.08754 
 1460000   -3403.8425    635.36969   -4039.2122    792.75693    14633.368   -19470.032    292.79308    824.80719    1.0252395         0.73       0.2856       0.0162      -0.0876 
 1461000   -3366.5935    651.43648   -4018.0299    750.79052    14694.158    -19470.56    300.19703    501.10686    1.0261915       0.7305      0.28596      0.01617     -0.08766 
 1462000   -3333.5799    689.42157   -4023.0015    752.65028    14688.411   -19470.805    317.70144   -167.15415    1.0112925        0.731      0.28632      0.01614     -0.08772 
 1463000   -3386.4954    627.93228   -4014.4277    702.55507    14743.585   -19467.213    289.36575   -1507.0063    0.9999211       0.7315      0.28668      0.01611     -0.08778 
 1464000    -3301.328    689.38023   -3990.7083    704.48811    14767.569   -19470.278    317.68239   -528.27802    1.0043055        0.732      0.28704      0.01608     -0.08784 
 1465000   -3358.3593    637.11316   -3995.4724    709.42002    14756.142   -19467.554    293.59652   -675.04094    1.0128469       0.7325       0.2874      0.01605      -0.0879 
 1466000    -3320.558    675.41569   -3995.9737    755.36628    14711.616   -19470.901    311.24721    364.39428    1.0247292        0.733      0.28776      0.01602     -0.08796 
 1467000   -3366.2535    639.98107   -4006.2345    744.12078    14709.733   -19466.118    294.91811    67.559547    1.0182957       0.7335      0.28812      0.01599     -0.08802 
 1468000   -3442.5522    591.76479    -4034.317    735.74811    14692.061   -19468.261    272.69894   -485.90963    1.0243344        0.734      0.28848      0.01596     -0.08808 
 1469000   -3409.2731    646.60452   -4055.8776    825.48362    14582.964   -19470.081    297.97035    1029.7377      1.02007       0.7345      0.28884      0.01593     -0.08814 
 1470000   -3330.9909    646.86422   -3977.8551    708.09966    14776.612    -19468.98    298.09003   -508.97297     0.999777        0.735       0.2892       0.0159      -0.0882 
 1471000   -3353.9053    653.93127   -4007.8366    756.18136     14699.13   -19468.339    301.34669    181.08082   0.99837542       0.7355      0.28956      0.01587     -0.08826 
 1472000   -3379.2431    642.84835   -4022.0915    768.77717    14670.417   -19468.016    296.23942   -292.82568   0.99406075        0.736      0.28992      0.01584     -0.08832 
 1473000   -3418.8719    694.30409    -4113.176    786.51748     14569.36   -19471.554    319.95142    77.330917    1.0123527       0.7365      0.29028      0.01581     -0.08838 
 1474000    -3354.987    675.62301     -4030.61    773.52914    14659.003   -19469.323    311.34275    516.05774    1.0050505        0.737      0.29064      0.01578     -0.08844 
 1475000   -3428.4913    627.04449   -4055.5358    753.48716    14653.724   -19470.701    288.95664   -645.12596    1.0014134       0.7375        0.291      0.01575      -0.0885 
 1476000   -3390.3684    681.43498   -4071.8034    788.73068    14598.976    -19466.43    314.02104   -314.26652     0.996662        0.738      0.29136      0.01572     -0.08856 
 1477000   -3357.2276    630.69806   -3987.9257    741.07202    14734.264   -19469.337    290.64029   -42.956186    1.0029806       0.7385      0.29172      0.01569     -0.08862 
 1478000   -3371.3946    658.05245    -4029.447    692.97694     14740.72   -19468.249    303.24582    -1701.475   0.99143793        0.739      0.29208      0.01566     -0.08868 
 1479000   -3415.9118    627.39818     -4043.31    733.33314    14689.601    -19471.13    289.11963   -1006.0619    1.0089013       0.7395      0.29244      0.01563     -0.08874 
 1480000   -3331.6076    650.13748   -3981.7451    772.23779    14707.204   -19467.451    299.59842    1111.9512    1.0167711         0.74       0.2928       0.0156      -0.0888 
 1481000   -3356.0755    644.02501   -4000.1005     755.9949    14711.712   -19471.589    296.78165    487.87996    1.0112603       0.7405      0.29316      0.01557     -0.08886 
 1482000   -3351.3446    646.96624   -3998.3108    774.10297    14692.286   -19470.045    298.13704    247.07844    1.0011461        0.741      0.29352      0.01554     -0.08892 
 1483000   -3314.1512    653.78578    -3967.937    797.13371    14697.612   -19470.018    301.27964    1335.2866    1.0142998       0.7415      0.29388      0.01551     -0.08898 
 1484000    -3376.303    656.07113   -4032.3742    748.56053    14684.913    -19470.69    302.33279   -206.66115   0.99982186        0.742      0.29424      0.01548     -0.08904 
 1485000   -3404.2336    626.32003   -4030.5537     798.6012    14632.863   -19469.581    288.62279    109.35876   0.99342155       0.7425       0.2946      0.01545      -0.0891 
 1486000   -3420.3184    644.87794   -4065.1964    818.92354    14581.487   -19469.336    297.17471      657.211    1.0032284        0.743      0.29496      0.01542     -0.08916 
 1487000   -3396.3465    650.52593   -4046.8725    799.52589    14614.014   -19467.247    299.77743    795.24836    1.0009758       0.7435      0.29532      0.01539     -0.08922 
 1488000   -3398.3423    644.56864   -4042.9109    750.19621    14673.039   -19471.045    297.03217   -1207.1749   0.99122457        0.744      0.29568      0.01536     -0.08928 
 1489000   -3324.8472    677.08763   -4001.9348    789.76474     14669.17    -19466.51    312.01768    644.38312     1.009971       0.7445      0.29604      0.01533     -0.08934 
 1490000    -3354.241    664.62654   -4018.8676    782.11132    14662.799   -19468.085    306.27532    773.72983    1.0280436        0.745       0.2964       0.0153      -0.0894 
 1491000   -3362.8325     659.9338   -4022.7663    704.74679    14739.265   -19470.983     304.1128   -1252.9538    1.0136001       0.7455      0.29676      0.01527     -0.08946 
 1492000   -3381.9241    678.15459   -4060.0787    733.04217     14671.54   -19470.655    312.50936   -802.08347   0.99423508        0.746      0.29712      0.01524     -0.08952 
 1493000   -3401.7081    614.00063   -4015.7087     737.1312    14706.121    -19467.43    282.94572    -608.9295    1.0097445       0.7465      0.29748      0.01521     -0.08958 
 1494000   -3337.7862    656.07886   -3993.8651    695.51987    14774.146   -19467.445    302.33635   -839.43147    1.0154953        0.747      0.29784      0.01518     -0.08964 
 1495000   -3404.1857    667.70099   -4071.8867     768.3665    14625.506   -19470.491     307.6921   -114.69594    1.0254747       0.7475       0.2982      0.01515      -0.0897 
 1496000   -3301.6217    651.68809   -3953.3098    723.85922    14783.178   -19468.158    300.31298     47.29211    1.0060577        0.748      0.29856      0.01512     -0.08976 
 1497000   -3396.4869    654.74185   -4051.2288    709.71868    14705.012   -19470.634    301.72022   -1153.3059    1.0110137       0.7485      0.29892      0.01509     -0.08982 
 1498000   -3313.6769    656.98187   -3970.6588    794.02728    14696.181   -19466.763    302.75248    745.57215   0.98893378        0.749      0.29928      0.01506     -0.08988 
 1499000   -3408.3595    650.17237   -4058.5318    789.38656    14618.993   -19471.816     299.6145    211.94952   0.99411212       0.7495      0.29964      0.01503     -0.08994 
 1500000   -3330.3646    713.39005   -4043.7546    759.30504      14663.4   -19471.171    328.74667    270.53683    1.0168554         0.75          0.3        0.015        -0.09 
 1501000   -3349.0974    639.55423   -3988.6517    722.96536    14752.729   -19472.362    294.72142   -1039.2174   0.98892006       0.7505      0.30036      0.01497     -0.09006 
 1502000   -3385.5257    658.74123   -4044.2669    742.66705    14678.653   -19471.561    303.56323   -520.68005    1.0207547        0.751      0.30072      0.01494     -0.09012 
 1503000   -3350.6307    668.56913   -4019.1998     758.8237      14687.2   -19469.059    308.09215    341.84486    1.0096872       0.7515      0.30108      0.01491     -0.09018 
 1504000   -3377.9875    661.99262   -4039.9801    740.45651      14687.3   -19471.984    305.06155   -221.26798    1.0162882        0.752      0.30144      0.01488     -0.09024 
 1505000   -3340.4277     658.9815   -3999.4092    727.59359    14736.787   -19468.912    303.67395   -566.01338    1.0059697       0.7525       0.3018      0.01485      -0.0903 
 1506000   -3376.8704    646.41173   -4023.2821    700.90024     14740.93   -19471.642    297.88151   -1253.5643   0.99028628        0.753      0.30216      0.01482     -0.09036 
 1507000   -3308.9225     646.6606   -3955.5831    738.74832     14769.01   -19469.055     297.9962   -24.100588   0.99625766       0.7535      0.30252      0.01479     -0.09042 
 1508000    -3352.722    669.75662   -4022.4786    724.85065    14717.845   -19470.746    308.63938   -503.59521      1.02872        0.754      0.30288      0.01476     -0.09048 
 1509000   -3383.4321    597.57663   -3981.0087    725.98362    14757.085   -19472.193    275.37716   -577.59991   0.99973813       0.7545      0.30324      0.01473     -0.09054 
 1510000   -3380.5965    634.92525   -4015.5217    740.91036    14711.801    -19471.83    292.58827   -712.86254   0.98084493        0.755       0.3036       0.0147      -0.0906 
 1511000   -3364.6189    640.50644   -4005.1254    691.55495    14765.335   -19466.971    295.16022   -1248.5369    1.0032136       0.7555      0.30396      0.01467     -0.09066 
 1512000    -3390.343    633.79643   -4024.1394    775.56871    14668.921   -19472.851    292.06809    347.61142   0.99571091        0.756      0.30432      0.01464     -0.09072 
 1513000   -3395.8108    632.36424    -4028.175     808.0952    14627.606   -19469.573     291.4081    108.64484   0.98284192       0.7565      0.30468      0.01461     -0.09078 
 1514000   -3341.7738    687.84216   -4029.6159    777.95937    14656.925   -19471.236    316.97361    109.70535    1.0042348        0.757      0.30504      0.01458     -0.09084 
 1515000   -3356.6826    692.61254   -4049.2952    741.60373    14672.033   -19469.026    319.17192   -412.80064   0.99357639       0.7575       0.3054      0.01455      -0.0909 
 1516000   -3415.1873    654.57485   -4069.7621    785.71854    14611.706   -19473.414    301.64327    140.07133    1.0201663        0.758      0.30576      0.01452     -0.09096 
 1517000   -3371.4918    677.20353   -4048.6953    771.78508    14642.277   -19471.446    312.07109    9.2742987    1.0207601       0.7585      0.30612      0.01449     -0.09102 
 1518000   -3316.0377      637.379   -3953.4167    737.62427    14769.995   -19468.345    293.71902    159.37216   0.99503559        0.759      0.30648      0.01446     -0.09108 
 1519000   -3308.8197    653.04102   -3961.8607    771.85464    14732.171   -19471.672    300.93644    784.27734    1.0097254       0.7595      0.30684      0.01443     -0.09114 
 1520000   -3340.4671    627.65024   -3968.1174    759.09104    14736.566   -19469.477    289.23578    187.45508    1.0185239         0.76       0.3072       0.0144      -0.0912 
 1521000   -3302.0992    646.71556   -3948.8147    744.21696    14769.645   -19468.577    298.02152    497.95639    1.0144683       0.7605      0.30756      0.01437     -0.09126 
 1522000   -3327.5578    672.75965   -4000.3175    783.02948    14679.176   -19470.431    310.02324    814.42892    1.0228294        0.761      0.30792      0.01434     -0.09132 
 1523000     -3290.07    687.05147   -3977.1214    685.87844    14803.149   -19472.315    316.60924   -1324.5806    1.0014905       0.7615      0.30828      0.01431     -0.09138 
 1524000     -3334.92    662.83635   -3997.7564    760.57364    14704.246   -19469.039    305.45036    618.44611    1.0065778        0.762      0.30864      0.01428     -0.09144 
 1525000     -3338.17    683.72113   -4021.8911    823.37969    14621.934   -19472.729    315.07455    1525.4204    1.0129331       0.7625        0.309      0.01425      -0.0915 
 1526000   -3423.9869    628.58036   -4052.5672     824.4921    14587.884   -19472.089     289.6644    951.50729    1.0161022        0.763      0.30936      0.01422     -0.09156 
 1527000    -3404.037    625.33106   -4029.3681    759.14823    14673.566   -19467.956    288.16705    143.71971    1.0275727       0.7635      0.30972      0.01419     -0.09162 
 1528000   -3341.9898     616.7238   -3958.7136    734.71516    14771.635   -19472.111    284.20063   -5.2856766     1.004725        0.764      0.31008      0.01416     -0.09168 
 1529000   -3335.6463    629.56325   -3965.2096     710.4551    14792.063   -19472.518    290.11734   -724.17719    1.0069359       0.7645      0.31044      0.01413     -0.09174 
 1530000   -3408.5485    627.82703   -4036.3755    748.13746    14686.079   -19474.057    289.31725   -287.63808   0.99818251        0.765       0.3108       0.0141      -0.0918 
 1531000   -3354.4209    645.15996   -3999.5809    809.37341    14652.456   -19469.404    297.30467    1834.8097    1.0220879       0.7655      0.31116      0.01407     -0.09186 
 1532000   -3386.9019    635.26039   -4022.1623    793.88663    14645.549   -19468.353    292.74272    645.75326    1.0265854        0.766      0.31152      0.01404     -0.09192 
 1533000    -3404.017    636.20637   -4040.2233    786.85529    14634.765   -19468.719    293.17864    317.26549    1.0099306       0.7665      0.31188      0.01401     -0.09198 
 1534000   -3380.1368    643.87219    -4024.009    771.19451    14673.544   -19473.648    296.71123    614.42797    1.0137761        0.767      0.31224      0.01398     -0.09204 
 1535000   -3341.0325    673.30942    -4014.342    763.36603    14689.111   -19470.938    310.27659    316.00702    1.0172391       0.7675       0.3126      0.01395      -0.0921 
 1536000   -3410.4404    637.42512   -4047.8655    720.36069    14694.492   -19471.752    293.74027   -1060.8195    1.0206814        0.768      0.31296      0.01392     -0.09216 
 1537000   -3363.0084    667.71652   -4030.7249    745.44547    14686.176   -19470.909    307.69925   -54.954452    1.0140932       0.7685      0.31332      0.01389     -0.09222 
 1538000   -3372.3552    641.67266   -4014.0279    752.52011    14695.366   -19470.319    295.69764   -201.91951    1.0079966        0.769      0.31368      0.01386     -0.09228 
 1539000   -3371.2987    656.64282   -4027.9415    787.28679    14647.302   -19470.254    302.59623    677.31841    1.0330767       0.7695      0.31404      0.01383     -0.09234 
 1540000   -3409.5793    640.92187   -4050.5012    835.70484     14577.88   -19471.084    295.35165    1850.3794    1.0366239         0.77       0.3144       0.0138      -0.0924 
 1541000   -3349.2053    650.90024   -4000.1056    751.70466    14713.788   -19471.672    299.94992    -65.22885   0.99810268       0.7705      0.31476      0.01377     -0.09246 
 1542000   -3392.4891    634.07725   -4026.5664    779.43358    14657.793   -19470.977    292.19749   -354.84202   0.99042618        0.771      0.31512      0.01374     -0.09252 
 1543000   -3368.3135    632.31518   -4000.6286    733.99763    14727.505   -19470.131    291.38549    -157.4437    1.0011844       0.7715      0.31548      0.01371     -0.09258 
 1544000   -3378.5383    648.88249   -4027.4208    798.60396    14640.593   -19470.413    299.02009     531.5073   0.99454574        0.772      0.31584      0.01368     -0.09264 
 1545000   -3289.6055    660.40124   -3950.0067    766.57246    14746.225   -19470.459     304.3282    507.72696   0.99786353       0.7725       0.3162      0.01365      -0.0927 
 1546000      -3324.7    667.37116   -3992.0711    762.77618    14707.787   -19470.412     307.5401    291.78698    1.0103386        0.773      0.31656      0.01362     -0.09276 
 1547000   -3353.3065    673.85349   -4027.1599    772.22815     14665.61    -19469.75    310.52731    478.66208    1.0152195       0.7735      0.31692      0.01359     -0.09282 
 1548000   -3439.7749    651.90139   -4091.6763    824.43203    14547.932   -19472.244    300.41127    454.68908    1.0136183        0.774      0.31728      0.01356     -0.09288 
 1549000   -3359.1591    642.42922   -4001.5883    704.66414    14758.152   -19470.314    296.04628    -1032.223   0.99522682       0.7745      0.31764      0.01353     -0.09294 
 1550000   -3335.7151    677.94759   -4013.6627    691.34187    14759.233   -19470.681    312.41397   -794.31003    1.0059541        0.775        0.318       0.0135       -0.093 
 1551000   -3417.0495    645.58932   -4062.6388    771.29753    14628.084   -19469.386    297.50253   -211.17226    1.0085309       0.7755      0.31836      0.01347     -0.09306 
 1552000   -3305.5578    679.79368   -3985.3515    736.85563    14738.902   -19468.671    313.26469   -390.77129   0.99631759        0.776      0.31872      0.01344     -0.09312 
 1553000   -3355.2336    679.03512   -4034.2687    750.12275    14679.181   -19470.197    312.91512   -89.883714   0.99528737       0.7765      0.31908      0.01341     -0.09318 
 1554000   -3371.3119    661.06785   -4032.3798    708.95424    14720.554    -19467.33    304.63539   -1013.0293    1.0107682        0.777      0.31944      0.01338     -0.09324 
 1555000   -3355.9179    622.03487   -3977.9528    714.15269    14769.864   -19468.362    286.64809   -793.68337    1.0159033       0.7775       0.3198      0.01335      -0.0933 
 1556000   -3390.8998    639.68737   -4030.5871    765.05464    14667.052   -19469.867    294.78277    381.03388    1.0120416        0.778      0.32016      0.01332     -0.09336 
 1557000   -3298.0411    688.38297    -3986.424    708.82731    14768.448   -19468.384    317.22283   -742.04891    1.0034814       0.7785      0.32052      0.01329     -0.09342 
 1558000   -3369.8317    632.13511   -4001.9668    738.34583    14720.308   -19466.512    291.30251   -484.73441    1.0114427        0.779      0.32088      0.01326     -0.09348 
 1559000    -3370.003    695.39718   -4065.4002    790.95813    14611.552   -19472.909    320.45514     839.0007    1.0311924       0.7795      0.32124      0.01323     -0.09354 
 1560000   -3338.3904    668.88456    -4007.275    735.15156    14723.612   -19470.868    308.23751    356.66515    1.0282646         0.78       0.3216       0.0132      -0.0936 
 1561000   -3408.7999    660.92456   -4069.7245    791.59231    14602.744   -19472.549    304.56936    74.529039    1.0097314       0.7805      0.32196      0.01317     -0.09366 
 1562000   -3348.4426    660.49052   -4008.9332    744.12329    14709.076   -19468.092    304.36934   -216.51502    1.0031139        0.781      0.32232      0.01314     -0.09372 
 1563000   -3406.8243    645.52322   -4052.3475    789.74775    14618.755     -19470.2    297.47206    878.19325    1.0266651       0.7815      0.32268      0.01311     -0.09378 
 1564000   -3360.2363    646.68037   -4006.9166    794.28659    14666.322   -19473.534    298.00531    756.64468    1.0137283        0.782      0.32304      0.01308     -0.09384 
 1565000   -3314.9428    674.60994   -3989.5528    808.29296    14660.968   -19465.334     310.8759    1401.2436    1.0174683       0.7825       0.3234      0.01305      -0.0939 
 1566000      -3363.7    668.53554   -4032.2356    818.42152    14610.949   -19470.367    308.07668    1399.7719    1.0118184        0.783      0.32376      0.01302     -0.09396 
 1567000   -3396.0017    649.52517   -4045.5269    783.68863    14636.191   -19471.315    299.31626    459.82505    1.0168425       0.7835      0.32412      0.01299     -0.09402 
 1568000   -3368.7049    649.62901   -4018.3339     747.1499    14696.507   -19468.361    299.36411   -426.30687    1.0057445        0.784      0.32448      0.01296     -0.09408 
 1569000   -3403.3496    608.10589   -4011.4554    709.69157    14742.233   -19471.366    280.22929   -1104.9172   0.97891538       0.7845      0.32484      0.01293     -0.09414 
 1570000   -3388.1581    627.33826   -4015.4964    707.69815    14735.981   -19469.733    289.09201   -1658.0054   0.98204364        0.785       0.3252       0.0129      -0.0942 
 1571000   -3358.4473    645.45514   -4003.9025    827.78498    14631.951   -19469.107    297.44069    1116.5873    1.0041647       0.7855      0.32556      0.01287     -0.09426 
 1572000     -3363.22     651.0498   -4014.2698    830.25822     14612.53   -19467.544    300.01884    1488.1069    1.0048194        0.786      0.32592      0.01284     -0.09432 
 1573000   -3405.2267    671.07235    -4076.299    855.31293    14531.232   -19468.599    309.24569    1543.8536   0.99462435       0.7865      0.32628      0.01281     -0.09438 
 1574000    -3349.994    639.79838   -3989.7924    730.65399    14737.461   -19465.792    294.83392   -861.36465   0.98035313        0.787      0.32664      0.01278     -0.09444 
 1575000    -3400.102    607.59509   -4007.6971    724.63793    14735.118   -19472.851     279.9939    -1320.461   0.98477608       0.7875        0.327      0.01275      -0.0945 
 1576000   -3336.8879    663.82501   -4000.7129    690.91972    14773.555   -19471.497    305.90595   -981.14733    1.0021304        0.788      0.32736      0.01272     -0.09456 
 1577000   -3343.6185     656.0774   -3999.6959    733.19665     14731.84   -19470.448    302.33568   -110.91729    1.0154534       0.7885      0.32772      0.01269     -0.09462 
 1578000   -3339.1335    633.97657   -3973.1101    732.56512    14759.963   -19471.573     292.1511   -517.88719    0.9885246        0.789      0.32808      0.01266     -0.09468 
 1579000   -3333.8267    677.93178   -4011.7585    745.01321    14704.037   -19470.536    312.40668   -72.540993   0.99713943       0.7895      0.32844      0.01263     -0.09474 
 1580000   -3329.7732    661.35493   -3991.1281    715.79259    14757.642   -19470.717    304.76769   -811.48347   0.98105307         0.79       0.3288       0.0126      -0.0948 
 1581000   -3423.9647    622.46409   -4046.4288     749.1514     14668.89   -19470.207    286.84588   -935.24484    0.9983094       0.7905      0.32916      0.01257     -0.09486 
 1582000   -3365.8032    656.15802   -4021.9612    659.37745    14782.467   -19470.457    302.37283   -1806.8227    1.0356919        0.791      0.32952      0.01254     -0.09492 
 1583000   -3377.4769    654.98225   -4032.4591    797.16927    14635.453   -19470.763    301.83101    1209.8909    1.0282317       0.7915      0.32988      0.01251     -0.09498 
 1584000    -3337.918    655.30341   -3993.2214    722.02522     14747.75   -19470.576      301.979   -589.94561    1.0213088        0.792      0.33024      0.01248     -0.09504 
 1585000   -3326.4439    640.76287   -3967.2068    751.95353    14747.666   -19472.867    295.27839     341.3701    1.0013842       0.7925       0.3306      0.01245      -0.0951 
 1586000   -3371.5388    675.48745   -4047.0262    795.30723    14622.506   -19471.637    311.28028    732.86565   0.99835162        0.793      0.33096      0.01242     -0.09516 
 1587000    -3371.632    654.40963   -4026.0416    743.46156    14692.642   -19468.484    301.56713   -486.55368   0.99969453       0.7935      0.33132      0.01239     -0.09522 
 1588000   -3334.2895     668.5881   -4002.8776     755.9342    14706.398    -19471.37    308.10089   -94.418131     1.010429        0.794      0.33168      0.01236     -0.09528 
 1589000   -3445.8541    613.58157   -4059.4357    736.94183    14666.032   -19473.329    282.75261   -513.15651    1.0089945       0.7945      0.33204      0.01233     -0.09534 
 1590000   -3406.0259    631.52078   -4037.5467    773.27355    14655.401   -19472.483    291.01942   -52.776625    1.0111562        0.795       0.3324       0.0123      -0.0954 
 1591000   -3368.8365    655.39268   -4024.2292    756.36814    14680.943   -19471.008    302.02014   -279.96712    1.0104128       0.7955      0.33276      0.01227     -0.09546 
 1592000   -3359.8583     658.7445   -4018.6028    784.58853    14658.617   -19469.838    303.56474    802.53031    1.0162365        0.796      0.33312      0.01224     -0.09552 
 1593000   -3437.8548    594.71967   -4032.5745    780.63323     14650.86   -19468.861    274.06061    505.39823    1.0202786       0.7965      0.33348      0.01221     -0.09558 
 1594000   -3380.6156     671.2419   -4051.8575    735.00696    14677.154   -19470.909    309.32383   -758.53477    1.0171961        0.797      0.33384      0.01218     -0.09564 
 1595000   -3362.7603    626.57554   -3989.3358    748.31381    14723.556   -19467.087    288.74053     524.2349    1.0207647       0.7975       0.3342      0.01215      -0.0957 
 1596000   -3364.4862    650.55936   -4015.0456    784.02988    14664.447   -19470.088    299.79284    836.08157    1.0123451        0.798      0.33456      0.01212     -0.09576 
 1597000   -3369.2576    667.67902   -4036.9367    762.52015    14668.731   -19473.438    307.68197    -533.6819   0.99600905       0.7985      0.33492      0.01209     -0.09582 
 1598000    -3321.777    680.20418   -4001.9812     781.6258     14679.44   -19469.072    313.45386    706.54588   0.99773464        0.799      0.33528      0.01206     -0.09588 
 1599000   -3336.3031    655.88937   -3992.1924    745.63497     14724.11   -19468.983    302.24902   -27.968837   0.98966242       0.7995      0.33564      0.01203     -0.09594 
 1600000   -3373.1501    656.49481   -4029.6449    716.47406    14717.633   -19470.353    302.52803   -1232.2018   0.99659034          0.8        0.336        0.012       -0.096 
 1601000   -3427.8665    651.87326   -4079.7398    832.71597    14554.084   -19472.781    300.39831    735.87655    1.0109441       0.8005      0.33636      0.01197     -0.09606 
 1602000   -3402.2786    631.28283   -4033.5614    752.06033    14675.591   -19470.111    290.90976   -129.10579    1.0093422        0.801      0.33672      0.01194     -0.09612 
 1603000   -3323.7252    678.50374   -4002.2289     794.2048      14671.4   -19471.414    312.67026    926.33053    1.0100464       0.8015      0.33708      0.01191     -0.09618 
 1604000   -3362.8748    641.77804   -4004.6528    780.85666    14679.978   -19472.234     295.7462     267.6635    1.0091206        0.802      0.33744      0.01188     -0.09624 
 1605000    -3370.822    614.89888   -3985.7209    743.72458    14732.872   -19470.644    283.35966   -625.56753    0.9776103       0.8025       0.3378      0.01185      -0.0963 
 1606000    -3400.879    668.38607   -4069.2651    764.09672    14631.806    -19470.12     308.0078   -206.13909   0.99723099        0.803      0.33816      0.01182     -0.09636 
 1607000   -3389.6687    642.21549   -4031.8842    833.36146    14597.683   -19470.415    295.94779    918.34216    1.0005734       0.8035      0.33852      0.01179     -0.09642 
 1608000   -3342.3598    663.56707   -4005.9269    753.95472    14707.532   -19471.407    305.78709   -370.42244   0.98419081        0.804      0.33888      0.01176     -0.09648 
 1609000   -3389.5395    637.81478   -4027.3543    792.43153     14648.55   -19472.959    293.91983     1076.418    1.0139105       0.8045      0.33924      0.01173     -0.09654 
 1610000   -3371.6072    658.72007   -4030.3272    799.89572    14634.882    -19473.21    303.55348    725.54343    1.0079471        0.805       0.3396       0.0117      -0.0966 
 1611000   -3380.7244    647.86891   -4028.5933    725.78529    14708.494   -19470.446    298.55301   -1003.2936    0.9845862       0.8055      0.33996      0.01167     -0.09666 
 1612000   -3406.0183    650.58442   -4056.6027    807.19337    14600.101   -19469.152    299.80438    702.85379     1.002844        0.806      0.34032      0.01164     -0.09672 
 1613000   -3343.3513    657.73045   -4001.0818    694.22708    14774.011   -19473.502    303.09744   -1635.0562   0.98168256       0.8065      0.34068      0.01161     -0.09678 
 1614000   -3380.3987     645.7294   -4026.1281    762.34876    14674.879   -19471.279    297.56708   -347.89859    0.9844639        0.807      0.34104      0.01158     -0.09684 
 1615000   -3353.4043     648.8325   -4002.2368     755.7892    14704.302   -19470.781    298.99706    72.808798   0.98734161       0.8075       0.3414      0.01155      -0.0969 
 1616000   -3394.3395     616.0226   -4010.3621    751.15628    14702.738   -19470.957    283.87749    -863.4057   0.98222583        0.808      0.34176      0.01152     -0.09696 
 1617000   -3304.1436      651.696   -3955.8396    777.66321    14734.527   -19472.546    300.31662    417.12729   0.98560962       0.8085      0.34212      0.01149     -0.09702 
 1618000   -3379.4827    648.79831    -4028.281    735.09751    14702.504   -19473.285     298.9813   -118.03773     1.019363        0.809      0.34248      0.01146     -0.09708 
 1619000   -3364.4016    647.81518   -4012.2168    736.16656    14717.986   -19471.935    298.52825   -611.49974    1.0109621       0.8095      0.34284      0.01143     -0.09714 
 1620000   -3314.3084    647.34959    -3961.658    780.03842     14724.35   -19473.589     298.3137    710.00923    1.0107453         0.81       0.3432       0.0114      -0.0972 
 1621000   -3322.1558    684.19885   -4006.3546    764.58881    14690.764   -19469.458    315.29469    316.46484   0.99999891       0.8105      0.34356      0.01137     -0.09726 
 1622000   -3345.7031    644.96757   -3990.6707    754.49189    14720.075   -19471.276    297.21601   -210.37201   0.99809171        0.811      0.34392      0.01134     -0.09732 
 1623000   -3416.0565    648.89753    -4064.954    828.70238    14576.063   -19473.903    299.02702    774.96772   0.99880881       0.8115      0.34428      0.01131     -0.09738 
 1624000   -3327.9968    686.66637   -4014.6632    723.33519    14727.884   -19471.187    316.43178   -599.93662   0.99319956        0.812      0.34464      0.01128     -0.09744 
 1625000   -3449.4196    642.89475   -4092.3143    807.87703    14569.075     -19473.4     296.2608    414.43966    1.0198344       0.8125        0.345      0.01125      -0.0975 
 1626000   -3316.2332    694.81058   -4011.0438    740.12892    14715.015   -19473.217    320.18482   -793.65845    1.0041478        0.813      0.34536      0.01122     -0.09756 
 1627000   -3381.8861    650.64869   -4032.5348    752.83279    14678.139   -19469.042      299.834    343.09619    1.0331319       0.8135      0.34572      0.01119     -0.09762 
 1628000   -3379.4212    637.19492   -4016.6161    750.38212    14695.135   -19468.967    293.63419   -154.80029    1.0045059        0.814      0.34608      0.01116     -0.09768 
 1629000   -3487.7735    620.84018   -4108.6136    779.52172    14577.433   -19472.634    286.09755   -581.00729    1.0162852       0.8145      0.34644      0.01113     -0.09774 
 1630000    -3353.118    661.67985   -4014.7979    766.45193    14682.933   -19471.693    304.91741    362.24672   0.99823626        0.815       0.3468       0.0111      -0.0978 
 1631000   -3351.6709    642.47124   -3994.1421    749.68535    14719.977   -19471.009    296.06564   -41.339317   0.99173869       0.8155      0.34716      0.01107     -0.09786 
 1632000   -3355.3829      649.045   -4004.4279     797.3124     14663.36   -19472.358    299.09498    201.59272   0.99109289        0.816      0.34752      0.01104     -0.09792 
 1633000    -3438.874    620.63922   -4059.5132    758.94535    14647.738   -19472.558    286.00494   -621.19134   0.99738604       0.8165      0.34788      0.01101     -0.09798 
 1634000   -3418.6275     655.0979   -4073.7254    750.76572      14639.9   -19473.333     301.8843   -547.92941   0.99945516        0.817      0.34824      0.01098     -0.09804 
 1635000   -3382.4482    678.62249   -4061.0707    779.80002    14625.913   -19473.675    312.72497    274.45055    1.0274555       0.8175       0.3486      0.01095      -0.0981 
 1636000   -3462.6724    645.70939   -4108.3817    806.13561    14552.382    -19472.45    297.55786    459.30455    1.0253127        0.818      0.34896      0.01092     -0.09816 
 1637000   -3380.7926    661.15328   -4041.9458    753.86441    14667.496   -19471.979    304.67476    -258.9754    1.0005183       0.8185      0.34932      0.01089     -0.09822 
 1638000   -3392.1427    699.72343   -4091.8661    825.38867    14547.222   -19472.039    322.44878    874.15889    1.0185666        0.819      0.34968      0.01086     -0.09828 
 1639000    -3379.398    624.94253   -4004.3405    756.43977    14703.525   -19471.901      287.988   -549.04185    1.0024185       0.8195      0.35004      0.01083     -0.09834 
 1640000   -3337.0443    672.43772    -4009.482    703.79263    14749.063   -19469.783    309.87489   -866.93789    1.0202898         0.82       0.3504       0.0108      -0.0984 
 1641000   -3338.5776    648.48984   -3987.0675    701.04073    14778.371   -19473.531    298.83915   -872.60099   0.99489848       0.8205      0.35076      0.01077     -0.09846 
 1642000   -3309.5273     668.1646   -3977.6919    770.40982    14713.586   -19470.369    307.90574   -200.65303   0.99053244        0.821      0.35112      0.01074     -0.09852 
 1643000   -3390.0339    670.13963   -4060.1735    751.80948    14656.295   -19472.606    308.81588   -145.94793    1.0189081       0.8215      0.35148      0.01071     -0.09858 
 1644000   -3362.4568    643.19083   -4005.6476    785.59948     14677.33   -19475.131    296.39724    517.66619   0.99254276        0.822      0.35184      0.01068     -0.09864 
 1645000   -3329.5518    628.79064   -3958.3425    672.49542    14832.228   -19469.484     289.7613   -1827.4243   0.99241414       0.8225       0.3522      0.01065      -0.0987 
 1646000   -3384.3421    638.38667   -4022.7288    726.20558    14718.377    -19472.91    294.18338   -1212.4372    0.9883871        0.823      0.35256      0.01062     -0.09876 
 1647000   -3378.8254    658.89083   -4037.7162    792.30405    14633.829   -19469.165    303.63217    367.48864   0.98695417       0.8235      0.35292      0.01059     -0.09882 
 1648000    -3404.278    636.64443   -4040.9224    800.99155    14623.719   -19471.112    293.38051    409.47195    1.0040881        0.824      0.35328      0.01056     -0.09888 
 1649000   -3350.0443    678.21603   -4028.2603    740.15255    14699.925   -19472.923    312.53767   -397.06843    1.0175268       0.8245      0.35364      0.01053     -0.09894 
 1650000   -3374.1938    639.29502   -4013.4888    687.43266    14760.797   -19469.955    294.60197   -1373.0907   0.99039072        0.825        0.354       0.0105       -0.099 
 1651000   -3378.1707     651.7128   -4029.8835     740.6354     14696.55   -19471.621    300.32437     -987.819   0.97038044       0.8255      0.35436      0.01047     -0.09906 
 1652000    -3425.519    642.04872   -4067.5677    825.61339    14572.838    -19471.28    295.87093    485.08228    1.0041722        0.826      0.35472      0.01044     -0.09912 
 1653000   -3377.5964    615.91482   -3993.5112    765.63942    14702.503   -19468.737    283.82783    833.11079    1.0177096       0.8265      0.35508      0.01041     -0.09918 
 1654000   -3384.2794    649.58992   -4033.8693    796.83626    14635.327   -19470.654    299.34609    1118.1051    1.0175581        0.827      0.35544      0.01038     -0.09924 
 1655000   -3392.8023    672.07633   -4064.8786    812.02889    14590.815   -19474.534    309.70835    485.53722    1.0130697       0.8275       0.3558      0.01035      -0.0993 
 1656000   -3323.6819    695.17201   -4018.8539    775.85304    14671.443   -19471.807    320.35138     619.0001    1.0105924        0.828      0.35616      0.01032     -0.09936 
 1657000   -3369.8333     663.5087    -4033.342    794.88786    14638.621   -19471.964    305.76019    880.50447    1.0098794       0.8285      0.35652      0.01029     -0.09942 
 1658000   -3399.9355    645.81368   -4045.7492      727.791    14692.787   -19471.907    297.60592   -866.23352    1.0207745        0.829      0.35688      0.01026     -0.09948 
 1659000   -3388.2681    634.71329   -4022.9814    763.72498    14680.689   -19472.596     292.4906    597.84605    1.0376615       0.8295      0.35724      0.01023     -0.09954 
 1660000     -3348.42    683.16031   -4031.5803     737.8963    14699.824   -19471.355    314.81611   -206.97746    1.0070515         0.83       0.3576       0.0102      -0.0996 
 1661000   -3375.5833    667.24457   -4042.8279    715.08577    14707.223   -19472.059    307.48177   -1029.0564    1.0337951       0.8305      0.35796      0.01017     -0.09966 
 1662000   -3374.0314     625.0122   -3999.0436    709.26291    14760.963   -19473.013    288.02011   -777.62712    1.0067938        0.831      0.35832      0.01014     -0.09972 
 1663000   -3363.1364    666.29185   -4029.4283    777.75603    14657.703   -19470.465    307.04273    345.68383   0.98835694       0.8315      0.35868      0.01011     -0.09978 
 1664000   -3356.8887      658.927   -4015.8157    733.41861    14718.644   -19471.559    303.64884   -943.90299    1.0004666        0.832      0.35904      0.01008     -0.09984 
 1665000   -3380.6023    628.32287   -4008.9252    757.33326    14696.728   -19469.256    289.54574   -92.763788   0.99174603       0.8325       0.3594      0.01005      -0.0999 
 1666000   -3347.3992    664.84673   -4012.2459       742.44    14707.419   -19467.054    306.37678    239.35475    1.0160991        0.833      0.35976      0.01002     -0.09996 
 1667000   -3349.5159    660.19738   -4009.7133    804.37519    14650.669   -19471.932    304.23426    582.42643    1.0042453       0.8335      0.36012      0.00999     -0.10002 
 1668000   -3446.4078    643.94065   -4090.3485     791.4178    14583.219    -19470.98    296.74278   -72.298638    1.0071795        0.834      0.36048      0.00996     -0.10008 
 1669000   -3445.8937    637.66477   -4083.5585    787.06889     14595.94   -19472.863    293.85071    261.07396    1.0101531       0.8345      0.36084      0.00993     -0.10014 
 1670000   -3383.4048    659.63417    -4043.039     747.6116    14671.747    -19471.79    303.97472   -722.39609    1.0033829        0.835       0.3612       0.0099      -0.1002 
 1671000   -3295.5591    657.75263   -3953.3117    704.94968    14808.563   -19471.029    303.10766   -603.03847    1.0104115       0.8355      0.36156      0.00987     -0.10026 
 1672000   -3329.4627    696.51696   -4025.9797    697.97629    14738.043   -19470.035    320.97116   -1133.6386    0.9930373        0.836      0.36192      0.00984     -0.10032 
 1673000   -3337.2424    658.97035   -3996.2127    780.41869    14685.153   -19470.872    303.66882    823.00439    1.0150532       0.8365      0.36228      0.00981     -0.10038 
 1674000   -3330.7439    671.29527   -4002.0392      780.333    14679.417   -19466.753    309.34842    507.78277     1.005472        0.837      0.36264      0.00978     -0.10044 
 1675000   -3334.8767    667.23855   -4002.1152    783.33431    14677.444   -19471.368    307.47899    1163.0979    1.0213658       0.8375        0.363      0.00975      -0.1005 
 1676000   -3391.0922     647.8186   -4038.9108    754.15205    14675.533   -19472.731    298.52983   -227.19522    1.0085675        0.838      0.36336      0.00972     -0.10056 
 1677000   -3340.6517    675.33933    -4015.991    776.81135    14670.188   -19470.792    311.21202   -401.65938   0.97787763       0.8385      0.36372      0.00969     -0.10062 
 1678000   -3379.2944    652.25875   -4031.5532      727.068    14707.593   -19471.605    300.57596   -369.40074    1.0133522        0.839      0.36408      0.00966     -0.10068 
 1679000   -3347.3524    663.15752   -4010.5099    788.23364    14665.149   -19470.454    305.59836     772.1131    1.0150087       0.8395      0.36444      0.00963     -0.10074 
 1680000   -3423.8918     599.3818   -4023.2736    746.70464    14695.554   -19471.587    276.20903   -540.13426    1.0017304         0.84       0.3648       0.0096      -0.1008 
 1681000   -3404.8613    642.55312   -4047.4144     802.1989    14615.821   -19472.683    296.10337    770.99089    1.0193945       0.8405      0.36516      0.00957     -0.10086 
 1682000    -3312.685    689.18428   -4001.8693    745.29425    14722.906   -19475.099     317.5921    189.57651    1.0196902        0.841      0.36552      0.00954     -0.10092 
 1683000   -3411.0544     636.0188   -4047.0732    720.50405    14697.297   -19472.949    293.09221    -1214.793    1.0077039       0.8415      0.36588      0.00951     -0.10098 
 1684000   -3313.4085     653.8262   -3967.2347    728.01049    14768.937   -19468.679    301.29827   -477.81875   0.97882657        0.842      0.36624      0.00948     -0.10104 
 1685000   -3303.4194    653.90171   -3957.3212    662.95358    14842.285   -19471.361    301.33307   -1296.3512   0.99257292       0.8425       0.3666      0.00945      -0.1011 
 1686000   -3312.5566    687.97515   -4000.5318    813.55478    14650.927   -19470.973     317.0349    1048.7191    1.0055201        0.843      0.36696      0.00942     -0.10116 
 1687000   -3387.6719    658.88975   -4046.5616    789.48311     14629.26   -19471.254    303.63167    305.70978    1.0076355       0.8435      0.36732      0.00939     -0.10122 
 1688000   -3405.9347    652.65258   -4058.5872    791.05437    14614.666   -19471.853    300.75744    680.98464    1.0080655        0.844      0.36768      0.00936     -0.10128 
 1689000   -3314.3938    682.05345   -3996.4472    743.22871    14727.633   -19472.817    314.30604   -228.73506    1.0154232       0.8445      0.36804      0.00933     -0.10134 
 1690000   -3361.4788    639.34183   -4000.8206    720.83261    14743.584   -19472.311    294.62354   -677.22022    1.0070706        0.845       0.3684       0.0093      -0.1014 
 1691000   -3378.1129    639.87167   -4017.9846    757.63157    14686.799   -19468.825     294.8677    238.37206    1.0109339       0.8455      0.36876      0.00927     -0.10146 
 1692000    -3333.119     651.0006   -3984.1196    775.10371    14707.783   -19472.293    299.99617    614.01204    0.9972976        0.846      0.36912      0.00924     -0.10152 
 1693000   -3384.5217    631.07706   -4015.5988    814.11703    14636.096   -19471.517    290.81494    1372.2933    1.0264261       0.8465      0.36948      0.00921     -0.10158 
 1694000   -3396.5679    636.76504   -4033.3329    739.30549    14692.737   -19471.539    293.43609   -405.08941   0.99515158        0.847      0.36984      0.00918     -0.10164 
 1695000   -3392.4576    615.27028   -4007.7279    775.70309    14681.458   -19472.275    283.53081    332.18147    1.0103373       0.8475       0.3702      0.00915      -0.1017 
 1696000   -3360.8232    640.36783    -4001.191    755.47082    14710.334   -19474.262    295.09634   -189.44021    1.0051158        0.848      0.37056      0.00912     -0.10176 
 1697000   -3374.5413     631.4363   -4005.9776    741.62076    14716.803   -19472.539    290.98049   -64.637489     1.009134       0.8485      0.37092      0.00909     -0.10182 
 1698000   -3399.0388    642.84944   -4041.8882    743.52907    14681.092   -19470.132    296.23992   -551.12447   0.99796374        0.849      0.37128      0.00906     -0.10188 
 1699000   -3359.2041    650.24465   -4009.4488    758.03082    14695.421    -19470.99    299.64781   -310.88839    1.0086741       0.8495      0.37164      0.00903     -0.10194 
 1700000   -3373.8248    634.83671   -4008.6615    790.99607    14667.595   -19472.432    292.54747    1138.1292    1.0143224         0.85        0.372        0.009       -0.102 
 1701000   -3401.0431    658.87276   -4059.9159    821.86893    14585.624   -19475.149    303.62384    1384.0234    1.0195479       0.8505      0.37236      0.00897     -0.10206 
 1702000     -3355.31    641.98775   -3997.2978    724.46631    14744.845   -19472.205    295.84284   -471.00106    1.0131044        0.851      0.37272      0.00894     -0.10212 
 1703000   -3381.6027    619.29157   -4000.8942     713.1705    14753.828   -19474.705    285.38391   -591.08538    1.0368052       0.8515      0.37308      0.00891     -0.10218 
 1704000   -3383.5042    640.94411   -4024.4483    782.00537    14663.811   -19476.268     295.3619    1229.4658    1.0434438        0.852      0.37344      0.00888     -0.10224 
 1705000   -3396.9429     627.9319   -4024.8748    729.36476    14712.266   -19474.581    289.36558   -1157.6571     1.007136       0.8525       0.3738      0.00885      -0.1023 
 1706000   -3343.8537    680.91987   -4024.7736    813.76146    14631.669   -19474.345    313.78366     1702.658    1.0337083        0.853      0.37416      0.00882     -0.10236 
 1707000   -3361.9897    648.77715   -4010.7668    745.78094     14709.47   -19473.065    298.97155   -32.898319     1.004399       0.8535      0.37452      0.00879     -0.10242 
 1708000   -3362.3259    666.89817   -4029.2241    705.48189    14733.784   -19473.934    307.32214   -1308.2776    1.0177282        0.854      0.37488      0.00876     -0.10248 
 1709000   -3410.3504     652.5091   -4062.8595    730.23972    14676.259   -19477.155    300.69132   -637.15993    1.0105354       0.8545      0.37524      0.00873     -0.10254 
 1710000   -3482.6011     607.2357   -4089.8368    770.81875    14608.237   -19474.859    279.82829   -397.20908   0.99783236        0.855       0.3756       0.0087      -0.1026 
 1711000   -3332.4417    659.05794   -3991.4997    744.84567    14730.477   -19474.355    303.70918    113.45475    1.0108458       0.8555      0.37596      0.00867     -0.10266 
 1712000   -3369.6157    657.97456   -4027.5902    800.55087    14637.249   -19472.696    303.20993    911.43922    1.0296867        0.856      0.37632      0.00864     -0.10272 
 1713000   -3409.6489     624.4331    -4034.082    826.07018    14603.426   -19472.826    287.75325    1252.3933    1.0155666       0.8565      0.37668      0.00861     -0.10278 
 1714000   -3334.4805    673.07085   -4007.5514    767.00697    14692.148   -19472.471    310.16665    296.54161    1.0064749        0.857      0.37704      0.00858     -0.10284 
 1715000   -3380.0635    630.95209   -4011.0156    749.86817     14706.81   -19474.372    290.75735   -214.92326    1.0164974       0.8575       0.3774      0.00855      -0.1029 
 1716000   -3410.5473     640.0776   -4050.6249    759.12371    14658.756   -19473.492     294.9626   -587.83385   0.96750925        0.858      0.37776      0.00852     -0.10296 
 1717000   -3399.3653    644.30106   -4043.6664    775.77353    14649.267   -19475.621    296.90886    212.14222   0.98725749       0.8585      0.37812      0.00849     -0.10302 
 1718000   -3314.9954    690.40936   -4005.4047    769.20343    14691.935    -19472.58    318.15664    198.87319     1.005788        0.859      0.37848      0.00846     -0.10308 
 1719000   -3383.9981     656.3123   -4040.3104    806.66567    14618.167   -19473.059    302.44392    794.30664    1.0197158       0.8595      0.37884      0.00843     -0.10314 
 1720000    -3340.085     668.2185   -4008.3035    790.53636    14666.173   -19473.999    307.93057    834.89064    1.0008415         0.86       0.3792       0.0084      -0.1032 
 1721000   -3393.9064     620.5638   -4014.4702    768.01896    14681.228   -19472.447    285.97019   -177.36896    1.0114929       0.8605      0.37956      0.00837     -0.10326 
 1722000   -3365.2371    653.86439   -4019.1015    781.73887    14668.521   -19474.025    301.31587    381.32904    1.0116383        0.861      0.37992      0.00834     -0.10332 
 1723000   -3368.7567    638.73268   -4007.4894    746.25124    14708.291   -19471.671    294.34283   -700.19318   0.97167236       0.8615      0.38028      0.00831     -0.10338 
 1724000   -3346.2307    660.51937     -4006.75    768.00826    14695.095   -19474.815    304.38264    4.5660612   0.99283066        0.862      0.38064      0.00828     -0.10344 
 1725000    -3431.461    658.27879   -4089.7398    765.90036     14610.89   -19473.295    303.35013   -872.31944   0.98176761       0.8625        0.381      0.00825      -0.1035 
 1726000   -3349.5167    682.76695   -4032.2836    778.73357    14657.729   -19474.984    314.63484    341.25457   0.99461727        0.863      0.38136      0.00822     -0.10356 
 1727000   -3363.8771    676.69157   -4040.5686    748.13966    14675.357   -19472.208    311.83516   -599.46696    1.0010406       0.8635      0.38172      0.00819     -0.10362 
 1728000   -3362.2847    631.47617   -3993.7609    741.45757    14731.123   -19471.219    290.99886   -234.81597      1.00397        0.864      0.38208      0.00816     -0.10368 
 1729000   -3395.6163    622.36688   -4017.9832    736.04017    14711.767   -19473.758    286.80108   -334.48494   0.99974171       0.8645      0.38244      0.00813     -0.10374 
 1730000   -3346.9398    654.94465   -4001.8845    824.03316    14642.567   -19474.704    301.81368    1184.6968   0.98894162        0.865       0.3828       0.0081      -0.1038 
 1731000   -3436.3494    635.88233   -4072.2318    776.66617    14617.085   -19473.822    293.02932    132.06573    1.0151466       0.8655      0.38316      0.00807     -0.10386 
 1732000   -3430.1901     647.1554   -4077.3455    756.26001    14630.392   -19472.051    298.22421   -137.58093     1.019148        0.866      0.38352      0.00804     -0.10392 
 1733000   -3369.2031    645.91668   -4015.1198    781.91201    14669.696   -19474.259    297.65338    247.49579    1.0078828       0.8665      0.38388      0.00801     -0.10398 
 1734000   -3362.7129    657.68228   -4020.3952    774.37967    14673.676   -19475.608    303.07524   -150.73389     0.997062        0.867      0.38424      0.00798     -0.10404 
 1735000   -3376.9344    661.81789   -4038.7523    758.11286    14670.652   -19473.997    304.98103   -494.99748   0.98431967       0.8675       0.3846      0.00795      -0.1041 
 1736000   -3418.0035    646.64664   -4064.6502    800.79498    14601.751   -19473.149    297.98976    342.06089    1.0164109        0.868      0.38496      0.00792     -0.10416 
 1737000   -3403.8051    640.48465   -4044.2897    747.87713    14675.237   -19474.655    295.15018   -507.34843    1.0116628       0.8685      0.38532      0.00789     -0.10422 
 1738000   -3344.5454    653.17292   -3997.7183    759.57443    14709.068   -19473.695    300.99722    565.80729    1.0090944        0.869      0.38568      0.00786     -0.10428 
 1739000   -3372.0569     680.5168   -4052.5737    747.38686    14669.798   -19474.994    313.59792   -100.79847     1.019333       0.8695      0.38604      0.00783     -0.10434 
 1740000   -3379.6919    653.12801   -4032.8199    807.82448    14624.818   -19473.537    300.97653    1019.6846    1.0279669         0.87       0.3864       0.0078      -0.1044 
 1741000   -3354.2328    651.57026   -4005.8031    796.78521    14664.683   -19475.011    300.25868    845.96396   0.99402368       0.8705      0.38676      0.00777     -0.10446 
 1742000   -3289.5084    663.22279   -3952.7312    696.50311    14812.182   -19469.015    305.62844   -466.69613    1.0114891        0.871      0.38712      0.00774     -0.10452 
 1743000   -3343.1557    622.04052   -3965.1962    695.53958    14800.855   -19471.802    286.65069   -1525.2306   0.97952531       0.8715      0.38748      0.00771     -0.10458 
 1744000   -3411.7338     612.8195   -4024.5533    848.07754    14598.676   -19475.689    282.40143    1265.1593   0.99183502        0.872      0.38784      0.00768     -0.10464 
 1745000   -3360.4814    633.66927   -3994.1507     743.9474    14724.504   -19470.146    292.00949   -199.47012    0.9880014       0.8725       0.3882      0.00765      -0.1047 
 1746000   -3382.7251    647.66299   -4030.3881    786.91949    14646.726   -19474.068    298.45812    60.629454    0.9973969        0.873      0.38856      0.00762     -0.10476 
 1747000   -3330.3991    659.98266   -3990.3817    711.11871    14760.922   -19471.663    304.13531   -568.80148    1.0079155       0.8735      0.38892      0.00759     -0.10482 
 1748000   -3336.1929    656.43909    -3992.632    750.06556     14724.02   -19473.541    302.50235    122.43651    1.0037942        0.874      0.38928      0.00756     -0.10488 
 1749000   -3386.2425    683.00436   -4069.2469    812.88392    14583.065   -19472.916    314.74424    489.61379    1.0117831       0.8745      0.38964      0.00753     -0.10494 
 1750000   -3381.8158    665.05667   -4046.8725    746.03138    14673.556   -19474.238    306.47353   -835.89283    1.0008223        0.875         0.39       0.0075       -0.105 
 1751000   -3390.3374    638.79079   -4029.1282     769.6053    14666.451   -19473.526     294.3696    767.87807    1.0211927       0.8755      0.39036      0.00747     -0.10506 
 1752000   -3347.6943    671.01624   -4018.7105    803.67943    14642.955   -19470.058    309.21984    1360.3754    1.0320772        0.876      0.39072      0.00744     -0.10512 
 1753000   -3351.8376    645.52119   -3997.3588    715.22825     14754.08   -19474.239    297.47113    -1047.379    1.0178902       0.8765      0.39108      0.00741     -0.10518 
 1754000   -3389.7068    686.16289   -4075.8697    797.58448    14593.258   -19473.824    316.19977     961.8866    1.0250892        0.877      0.39144      0.00738     -0.10524 
 1755000   -3438.2345     618.0496   -4056.2841    786.10588    14623.078   -19474.768    284.81158    675.80584    1.0162398       0.8775       0.3918      0.00735      -0.1053 
 1756000   -3358.8151    667.48186   -4026.2969    792.98206    14643.163   -19473.103    307.59111    615.43295    1.0168781        0.878      0.39216      0.00732     -0.10536 
 1757000   -3401.6094    623.67257    -4025.282    775.03585    14667.977   -19476.019    287.40278    75.613362    1.0159628       0.8785      0.39252      0.00729     -0.10542 
 1758000   -3399.1116    655.00731    -4054.119    795.55234    14617.371   -19474.433    301.84255    1006.4206    1.0124886        0.879      0.39288      0.00726     -0.10548 
 1759000   -3369.0182    678.04834   -4047.0665    791.99763    14627.262   -19474.039    312.46039   -107.41332    1.0122485       0.8795      0.39324      0.00723     -0.10554 
 1760000   -3414.1297    637.55986   -4051.6896    803.29781    14611.404   -19473.898    293.80236    866.04536     1.014433         0.88       0.3936       0.0072      -0.1056 
 1761000   -3319.2715    647.36951   -3966.6411    770.47089    14725.613   -19472.669    298.32288    866.87519    1.0064267       0.8805      0.39396      0.00717     -0.10566 
 1762000   -3398.5152    584.46647   -3982.9816    695.74016    14781.663   -19472.839     269.3357   -1414.6365    1.0264891        0.881      0.39432      0.00714     -0.10572 
 1763000    -3349.916    655.82036   -4005.7363    746.28923     14715.39   -19473.273    302.21723   -522.56444   0.99413382       0.8815      0.39468      0.00711     -0.10578 
 1764000   -3372.3655    623.32785   -3995.6933    752.40286    14712.889   -19469.946    287.24393    297.42713    1.0168285        0.882      0.39504      0.00708     -0.10584 
 1765000   -3365.8255    625.22681   -3991.0523    769.73355    14700.314   -19471.671    288.11901    274.96855   0.99717039       0.8825       0.3954      0.00705      -0.1059 
 1766000   -3455.2775    635.55955    -4090.837    714.10771    14661.546   -19475.337    292.88057   -1689.1304     1.006746        0.883      0.39576      0.00702     -0.10596 
 1767000   -3381.2718     657.6297   -4038.9015    839.64778     14587.73   -19475.566    303.05101    2156.1511    1.0170153       0.8835      0.39612      0.00699     -0.10602 
 1768000   -3403.1014    637.73818   -4040.8396    744.05207    14678.983   -19474.741    293.88454   -733.82559     1.017605        0.884      0.39648      0.00696     -0.10608 
 1769000   -3367.1302     634.5835   -4001.7137     737.0073    14727.099   -19471.615    292.43079   -551.04582    1.0000952       0.8845      0.39684      0.00693     -0.10614 
 1770000   -3376.6887    621.61956   -3998.3082    738.01812    14731.013   -19474.568    286.45671   -305.22446    0.9972007        0.885       0.3972       0.0069      -0.1062 
 1771000   -3387.1085    646.01179   -4033.1202    743.74311    14684.898   -19471.626    297.69721   -264.62306    1.0182772       0.8855      0.39756      0.00687     -0.10626 
 1772000   -3379.9072    650.38505   -4030.2922    810.78653    14622.816   -19469.779    299.71251    373.40455   0.98755923        0.886      0.39792      0.00684     -0.10632 
 1773000   -3416.0486    646.69532   -4062.7439     787.7837    14616.278   -19474.696     298.0122    75.043459   0.99407378       0.8865      0.39828      0.00681     -0.10638 
 1774000   -3378.0595    659.42182   -4037.4813    790.46557     14641.05   -19475.064    303.87686    435.46802   0.99444512        0.887      0.39864      0.00678     -0.10644 
 1775000     -3369.59    663.93132   -4033.5213    753.34558    14680.176    -19474.34    305.95494    -384.8454    1.0243115       0.8875        0.399      0.00675      -0.1065 
 1776000   -3416.4269    622.81839   -4039.2453    727.54924    14700.109   -19474.336    287.00915   -974.11981   0.99051665        0.888      0.39936      0.00672     -0.10656 
 1777000   -3420.2931    585.94972   -4006.2428    758.16654    14700.259   -19473.177    270.01922    80.690611   0.98805435       0.8885      0.39972      0.00669     -0.10662 
 1778000    -3380.773    639.13221   -4019.9052    832.64461    14614.819   -19475.935    294.52694    1362.0376    1.0145225        0.889      0.40008      0.00666     -0.10668 
 1779000   -3361.8037    661.77166   -4023.5754    745.82773    14698.086   -19472.479    304.95972   -1003.1038   0.97886257       0.8895      0.40044      0.00663     -0.10674 
 1780000   -3378.6527    652.89527   -4031.5479    799.41731    14632.144   -19474.456    300.86928    851.07048   0.99408785         0.89       0.4008       0.0066      -0.1068 
 1781000   -3390.0118    648.30973   -4038.3216     736.0349    14697.008   -19476.608    298.75615   -1409.3041   0.98019324       0.8905      0.40116      0.00657     -0.10686 
 1782000   -3395.2254    658.22279   -4053.4482    796.20375    14616.005   -19472.382    303.32432    416.75901    1.0095263        0.891      0.40152      0.00654     -0.10692 
 1783000   -3372.4824    664.71164    -4037.194     797.6699    14627.134   -19471.779    306.31454    1190.6808    1.0109013       0.8915      0.40188      0.00651     -0.10698 
 1784000   -3371.2168    657.78709   -4029.0039       705.47    14734.527   -19476.841    303.12354   -1221.6366    1.0020688        0.892      0.40224      0.00648     -0.10704 
 1785000   -3378.1234    620.54258    -3998.666    768.58758    14699.216   -19474.942    285.96041     296.2748    1.0112118       0.8925       0.4026      0.00645      -0.1071 
 1786000   -3373.7546    648.76361   -4022.5182     767.6636    14675.883   -19473.847    298.96531    78.419332   0.99135567        0.893      0.40296      0.00642     -0.10716 
 1787000   -3406.8223    633.79357   -4040.6159    846.98082    14578.854   -19473.933    292.06677    1914.9256    1.0212534       0.8935      0.40332      0.00639     -0.10722 
 1788000   -3345.3829    644.85711     -3990.24    736.96096    14733.577   -19470.491    297.16511   -860.46564   0.99756115        0.894      0.40368      0.00636     -0.10728 
 1789000    -3374.896    675.24424   -4050.1403    794.63505    14618.349   -19471.638     311.1682    201.31755    1.0025466       0.8945      0.40404      0.00633     -0.10734 
 1790000   -3308.4773    694.46127   -4002.9385    732.67949    14727.432   -19472.364    320.02385    150.94536    1.0187815        0.895       0.4044       0.0063      -0.1074 
 1791000   -3370.1089    644.67448   -4014.7834    767.76209        14681   -19471.787    297.08095   -205.63812    1.0052895       0.8955      0.40476      0.00627     -0.10746 
 1792000   -3357.6795    610.01959   -3967.6991    754.97882    14743.063   -19472.433    281.11117    -99.40317   0.99659786        0.896      0.40512      0.00624     -0.10752 
 1793000   -3368.6882    662.29494   -4030.9831     767.6791    14666.692   -19474.319    305.20086    423.35406    1.0029337       0.8965      0.40548      0.00621     -0.10758 
 1794000   -3383.1733    639.24753   -4022.4208     762.9097    14678.708   -19471.176    294.58008   -628.41498   0.97306282        0.897      0.40584      0.00618     -0.10764 
 1795000   -3401.0603    624.90667   -4025.9669    825.20277    14613.421   -19475.286    287.97148    670.20945   0.98719066       0.8975       0.4062      0.00615      -0.1077 
 1796000   -3353.1171    633.65561   -3986.7727    732.79285    14743.758   -19472.842     292.0032   -254.45965   0.99150444        0.898      0.40656      0.00612     -0.10776 
 1797000   -3361.8256    666.75638    -4028.582    792.90078    14648.397   -19474.387     307.2568    619.77997   0.99509049       0.8985      0.40692      0.00609     -0.10782 
 1798000   -3355.6778    671.51452   -4027.1923    826.97605    14610.596   -19473.572    309.44946    731.77728   0.99708062        0.899      0.40728      0.00606     -0.10788 
 1799000   -3404.2869     643.5335   -4047.8204    731.54529    14684.783   -19472.483    296.55516   -359.18809    1.0101334       0.8995      0.40764      0.00603     -0.10794 
 1800000   -3335.3302    667.42984   -4002.7601    742.51155    14717.957   -19472.444    307.56714   -165.01759   0.99600765          0.9        0.408        0.006       -0.108 
 1801000   -3342.4389    665.98507    -4008.424    824.67636    14633.381   -19474.441    306.90136    1095.0414    1.0034664       0.9005      0.40836      0.00597     -0.10806 
 1802000   -3397.4041    646.97569   -4044.3798    797.02747    14628.088   -19476.595     298.1414    709.41789    1.0054009        0.901      0.40872      0.00594     -0.10812 
 1803000   -3336.6698    692.56773   -4029.2375    747.71086    14691.188   -19471.564    319.15127   -113.42735    1.0210714       0.9015      0.40908      0.00591     -0.10818 
 1804000   -3357.8288    671.00436   -4028.8331    759.22056    14676.434   -19473.608    309.21437   -471.57063    1.0015115        0.902      0.40944      0.00588     -0.10824 
 1805000   -3385.0171    642.19551   -4027.2127    793.22082    14644.096    -19473.34    295.93858    904.77574   0.99683723       0.9025       0.4098      0.00585      -0.1083 
 1806000   -3383.0698    653.98272   -4037.0525    801.53623    14630.378   -19475.679     301.3704    825.90214    1.0228912        0.903      0.41016      0.00582     -0.10836 
 1807000   -3388.1824    639.92164    -4028.104     712.2394     14732.73   -19477.585    294.89073   -1358.0207    0.9965272       0.9035      0.41052      0.00579     -0.10842 
 1808000   -3397.7379    647.78387   -4045.5217    778.07484    14641.744   -19474.545    298.51382    234.01293    1.0157544        0.904      0.41088      0.00576     -0.10848 
 1809000   -3371.4237    643.58079   -4015.0045     737.2362    14716.646   -19475.755    296.57695    -745.7106    0.9999357       0.9045      0.41124      0.00573     -0.10854 
 1810000   -3339.7841    669.55897   -4009.3431    757.22071    14699.419   -19474.267     308.5483   -156.18944    1.0098147        0.905       0.4116       0.0057      -0.1086 
 1811000   -3419.1922    629.59205   -4048.7842    763.38852     14657.45   -19477.248    290.13061    15.088249    1.0052195       0.9055      0.41196      0.00567     -0.10866 
 1812000   -3344.4405     634.7412   -3979.1817    717.17412    14768.097   -19473.669    292.50346   -876.74117   0.99232941        0.906      0.41232      0.00564     -0.10872 
 1813000   -3393.8447    666.76396   -4060.6087    777.55326    14628.876   -19476.745    307.26029   -194.63809   0.99897549       0.9065      0.41268      0.00561     -0.10878 
 1814000   -3388.9545    651.13048    -4040.085    762.98939    14665.717   -19475.883    300.05602   -893.52321   0.97310334        0.907      0.41304      0.00558     -0.10884 
 1815000   -3380.0156    654.56365   -4034.5792    774.45886    14658.236     -19476.7    301.63811   -192.25437   0.98209815       0.9075       0.4134      0.00555      -0.1089 
 1816000   -3329.0865    652.61243    -3981.699    753.69842     14733.92   -19475.105    300.73894   -264.48569   0.98275878        0.908      0.41376      0.00552     -0.10896 
 1817000   -3387.3167    638.86306   -4026.1798    757.07283    14684.793   -19474.744    294.40291   -395.65428   0.98657854       0.9085      0.41412      0.00549     -0.10902 
 1818000   -3343.3959    663.97974   -4007.3756    751.66416    14710.682   -19474.026    305.97726   -259.28946   0.98514736        0.909      0.41448      0.00546     -0.10908 
 1819000   -3356.7756    690.22878   -4047.0044     782.9173    14637.796    -19476.46    318.07342    496.83584    1.0137028       0.9095      0.41484      0.00543     -0.10914 
 1820000   -3374.4533     655.7089   -4030.1622    716.83843    14723.147   -19475.119    302.16586    -1131.649    1.0013694         0.91       0.4152       0.0054      -0.1092 
 1821000   -3352.4862    658.59813   -4011.0844    684.30208    14770.451   -19474.937    303.49729   -1167.4389    1.0000048       0.9105      0.41556      0.00537     -0.10926 
 1822000   -3348.0017    668.48093   -4016.4826    714.41494    14734.748   -19475.372    308.05151   -1114.6849    1.0033102        0.911      0.41592      0.00534     -0.10932 
 1823000   -3383.2247    643.97991   -4027.2046    782.74813    14660.914   -19477.929    296.76087    401.50815    1.0248601       0.9115      0.41628      0.00531     -0.10938 
 1824000   -3383.8813    682.25992   -4066.1412     801.8072     14597.81   -19475.388    314.40119    550.10246    1.0112737        0.912      0.41664      0.00528     -0.10944 
 1825000   -3361.7458    656.67996   -4018.4257    717.40917    14728.571   -19474.644    302.61335   -1203.3822    1.0094356       0.9125        0.417      0.00525      -0.1095 
 1826000   -3339.6393    658.15157   -3997.7908    773.51858     14697.55   -19475.429     303.2915    570.05302    1.0172448        0.913      0.41736      0.00522     -0.10956 
 1827000   -3376.3326    660.62071   -4036.9533    782.07702    14645.658   -19474.429    304.42934    466.70359    1.0098898       0.9135      0.41772      0.00519     -0.10962 
 1828000   -3367.4081    630.43228   -3997.8404     736.1949     14734.57   -19476.531    290.51781   -226.47081    1.0142938        0.914      0.41808      0.00516     -0.10968 
 1829000   -3302.8087    671.76827    -3974.577    778.62587    14711.853   -19473.645    309.56639    499.83389    1.0071777       0.9145      0.41844      0.00513     -0.10974 
 1830000   -3358.9059    641.72177   -4000.6276    791.75582    14677.412   -19476.873    295.72027    1105.4336    1.0113132        0.915       0.4188       0.0051      -0.1098 
 1831000   -3389.5266    611.16333   -4000.6899    736.13993    14726.425   -19472.914    281.63823   -753.77011   0.99163076       0.9155      0.41916      0.00507     -0.10986 
 1832000   -3357.9612    675.54237   -4033.5036    742.97737    14691.143   -19475.711    311.30559   -443.37566    1.0044887        0.916      0.41952      0.00504     -0.10992 
 1833000   -3349.4176    640.95362   -3990.3713    760.92708    14720.214   -19476.954    295.36629    132.39834    1.0163382       0.9165      0.41988      0.00501     -0.10998 
 1834000   -3358.2034    647.51812   -4005.7215    689.78046    14771.209     -19477.2    298.39136   -1302.3345    1.0031958        0.917      0.42024      0.00498     -0.11004 
 1835000   -3413.5672    635.11187   -4048.6791    716.33769    14700.837   -19475.508    292.67427   -1178.0138    1.0070484       0.9175       0.4206      0.00495      -0.1101 
 1836000   -3367.1313    687.34468   -4054.4759    783.72117    14629.641    -19475.24    316.74436    501.12015    1.0235936        0.918      0.42096      0.00492     -0.11016 
 1837000   -3328.8587    660.11262   -3988.9714    681.85156    14797.482   -19475.355     304.1952   -1006.4256    1.0174717       0.9185      0.42132      0.00489     -0.11022 
 1838000   -3350.9715    658.21033   -4009.1818    784.39275    14675.471   -19475.228    303.31858    701.51656    1.0194804        0.919      0.42168      0.00486     -0.11028 
 1839000   -3411.1736    639.09658   -4050.2701    745.23576    14668.695   -19474.188    294.51052   -1047.1884   0.98784687       0.9195      0.42204      0.00483     -0.11034 
 1840000    -3407.676    618.11757   -4025.7936    765.82367     14675.88   -19473.049    284.84291    221.13235    1.0104064         0.92       0.4224       0.0048      -0.1104 
 1841000   -3363.9171    654.09126   -4018.0083    796.58178    14656.084   -19478.243    301.42042    568.91642    1.0026073       0.9205      0.42276      0.00477     -0.11046 
 1842000   -3389.1402    677.35365   -4066.4939    756.64332    14643.239   -19475.104    312.14027   -510.70116   0.99140862        0.921      0.42312      0.00474     -0.11052 
 1843000   -3352.3079    652.29169   -4004.5996    730.25719    14731.188   -19475.723    300.59113   -674.48925    1.0184275       0.9215      0.42348      0.00471     -0.11058 
 1844000   -3343.3475    681.25371   -4024.6012    710.07372      14732.6   -19474.221     313.9375   -1089.2561    1.0057425        0.922      0.42384      0.00468     -0.11064 
 1845000   -3381.9379    655.28931   -4037.2273    744.51031    14689.163   -19476.146     301.9725    147.88325    1.0316932       0.9225       0.4242      0.00465      -0.1107 
 1846000   -3385.8578    618.59554   -4004.4534    766.18049    14696.024   -19474.474    285.06317    338.42249    1.0088915        0.923      0.42456      0.00462     -0.11076 
 1847000   -3301.2163    678.45292   -3979.6692    759.98083     14725.17   -19474.279    312.64683   -129.06788   0.98295072       0.9235      0.42492      0.00459     -0.11082 
 1848000   -3400.9215    644.35262   -4045.2742    787.16607    14635.383    -19473.39    296.93263    312.56045    1.0061234        0.924      0.42528      0.00456     -0.11088 
 1849000   -3366.4904    634.07109   -4000.5615    759.48554    14704.269   -19474.654    292.19466   -290.96087   0.99784079       0.9245      0.42564      0.00453     -0.11094 
 1850000   -3356.2806    662.24262   -4018.5232      752.546    14697.902   -19476.223    305.17675   -176.16206    1.0173463        0.925        0.426       0.0045       -0.111 
 1851000   -3396.3762    683.05071   -4079.4269    843.19097    14547.937   -19476.648     314.7656     1214.063    1.0168687       0.9255      0.42636      0.00447     -0.11106 
 1852000   -3348.7677    654.58066   -4003.3484    779.14934    14683.779   -19476.333    301.64594    414.83397    1.0049228        0.926      0.42672      0.00444     -0.11112 
 1853000   -3412.1152    626.04276    -4038.158     694.0822    14733.548   -19475.521    288.49502   -1513.9713    1.0101108       0.9265      0.42708      0.00441     -0.11118 
 1854000    -3360.577    642.35467   -4002.9317    767.91665    14694.986   -19474.691    296.01193    407.85729    1.0131038        0.927      0.42744      0.00438     -0.11124 
 1855000   -3325.2909    664.64966   -3989.9406    728.69885    14752.456   -19474.699    306.28597     -309.585   0.99930354       0.9275       0.4278      0.00435      -0.1113 
 1856000   -3392.8778    637.16877   -4030.0465     749.6424    14686.755   -19475.586    293.62214   -736.74377   0.97847738        0.928      0.42816      0.00432     -0.11136 
 1857000    -3368.228    654.64897    -4022.877    732.25584    14713.746   -19476.112    301.67742   -653.21003    1.0092734       0.9285      0.42852      0.00429     -0.11142 
 1858000   -3357.7993    645.05272    -4002.852    734.98053    14730.846   -19476.568    297.25525   -312.31891    1.0129851        0.929      0.42888      0.00426     -0.11148 
 1859000   -3337.3187    665.92488   -4003.2436    753.39565    14712.083   -19474.614    306.87362   -400.89226   0.98915672       0.9295      0.42924      0.00423     -0.11154 
 1860000   -3336.7203    645.51747   -3982.2378    752.56569    14735.625   -19476.925    297.46941   -17.564514    0.9876282         0.93       0.4296       0.0042      -0.1116 
 1861000   -3383.8888    658.85121     -4042.74    814.33362    14609.327   -19472.354    303.61391    1032.5028    1.0075732       0.9305      0.42996      0.00417     -0.11166 
 1862000   -3375.7382    661.06474    -4036.803    777.52733     14656.79   -19477.366    304.63396    695.50751    1.0119799        0.931      0.43032      0.00414     -0.11172 
 1863000   -3363.7695    660.41749    -4024.187    822.86838    14620.194   -19473.112    304.33569    1029.8324    1.0042127       0.9315      0.43068      0.00411     -0.11178 
 1864000   -3350.3046    671.50546   -4021.8101    698.00344    14745.021   -19474.385    309.44528   -1523.6885   0.99289384        0.932      0.43104      0.00408     -0.11184 
 1865000   -3346.7406    655.78742   -4002.5281    790.04637    14676.869    -19476.17    302.20204      633.726   0.99027272       0.9325       0.4314      0.00405      -0.1119 
 1866000    -3338.477    655.82803    -3994.305    790.12746    14681.946   -19476.096    302.22076    891.23464    1.0086749        0.933      0.43176      0.00402     -0.11196 
 1867000   -3346.8289     654.7688   -4001.5976    750.46508    14718.959   -19477.758    301.73264    221.62087     1.011678       0.9335      0.43212      0.00399     -0.11202 
 1868000   -3357.5825    638.66242    -3996.245    734.99782    14739.234   -19477.405    294.31045   -46.361897    1.0138057        0.934      0.43248      0.00396     -0.11208 
 1869000   -3398.6293     651.3082   -4049.9375    798.68302    14617.453   -19476.707    300.13792    796.90152    1.0257589       0.9345      0.43284      0.00393     -0.11214 
 1870000   -3344.5375     666.5493   -4011.0868    742.75035    14711.502    -19473.23    307.16137   -282.28194    1.0138583        0.935       0.4332       0.0039      -0.1122 
 1871000   -3448.5907    658.91978   -4107.5105    772.44401    14590.857   -19476.947    303.64551   -482.25827    1.0108008       0.9355      0.43356      0.00387     -0.11226 
 1872000   -3417.4659    652.18909    -4069.655    791.57486    14603.235   -19476.482    300.54385     110.5055    1.0116578        0.936      0.43392      0.00384     -0.11232 
 1873000   -3368.2819    654.30501   -4022.5869    809.91398    14633.293   -19474.278    301.51892    812.76312   0.99857155       0.9365      0.43428      0.00381     -0.11238 
 1874000   -3330.3883    676.71732   -4007.1056    765.40927    14687.966   -19474.343    311.84703    519.44561     1.012635        0.937      0.43464      0.00378     -0.11244 
 1875000    -3391.514    647.96926   -4039.4832    737.81645    14686.782   -19473.833    298.59926   -735.48928    1.0031661       0.9375        0.435      0.00375      -0.1125 
 1876000    -3382.548    635.96458   -4018.5126    747.42182    14701.116   -19475.386    293.06722   -246.89426    1.0134249        0.938      0.43536      0.00372     -0.11256 
 1877000   -3358.0051     649.5454   -4007.5505    741.85362    14716.474   -19477.041    299.32558    102.95237    1.0227662       0.9385      0.43572      0.00369     -0.11262 
 1878000   -3367.7685    636.40668   -4004.1752    703.57174    14759.479   -19474.675    293.27095   -1087.2329    1.0018776        0.939      0.43608      0.00366     -0.11268 
 1879000   -3401.7517    617.16009   -4018.9118    722.25213    14723.374   -19472.499    284.40168   -936.14025    1.0073474       0.9395      0.43644      0.00363     -0.11274 
 1880000   -3375.3004     654.8504   -4030.1508    753.37564    14685.448   -19474.733    301.77025   -243.44623    0.9935696         0.94       0.4368       0.0036      -0.1128 
 1881000   -3414.6051     627.5476   -4042.1527    765.33605    14659.427   -19475.079    289.18848   -407.34255    1.0065901       0.9405      0.43716      0.00357     -0.11286 
 1882000   -3409.4756    665.47079   -4074.9464    712.65894    14677.828   -19473.678    306.66437   -1525.3122    1.0075855        0.941      0.43752      0.00354     -0.11292 
 1883000   -3369.3657    629.80034   -3999.1661    791.95449    14675.147   -19471.175     290.2266    1140.8834    1.0180242       0.9415      0.43788      0.00351     -0.11298 
 1884000   -3310.1644      674.949   -3985.1134    727.22398    14754.569   -19474.031    311.03214   -938.98648   0.97664655        0.942      0.43824      0.00348     -0.11304 
 1885000   -3366.1611    666.19088    -4032.352    799.85366    14636.795   -19476.925     306.9962    1060.4027    1.0273731       0.9425       0.4386      0.00345      -0.1131 
 1886000   -3355.9785    664.31446    -4020.293     744.3628    14703.077   -19473.313     306.1315   -196.27481   0.99846179        0.943      0.43896      0.00342     -0.11316 
 1887000   -3392.9837    620.07935    -4013.063    783.19601    14671.346   -19476.896    285.74694    212.59425    1.0054722       0.9435      0.43932      0.00339     -0.11322 
 1888000   -3379.2097    638.57632   -4017.7861    743.68064    14706.819     -19473.2    294.27077   -369.51913    1.0191342        0.944      0.43968      0.00336     -0.11328 
 1889000   -3379.1391    631.66843   -4010.8076     699.7158    14756.641   -19476.033    291.08746   -1080.5075    1.0074043       0.9445      0.44004      0.00333     -0.11334 
 1890000   -3399.1436    644.79181   -4043.9355    802.59359    14623.361   -19474.189    297.13501    905.49902    1.0105854        0.945       0.4404       0.0033      -0.1134 
 1891000    -3443.253    652.39374   -4095.6467    784.47319    14586.435   -19475.697    300.63816   -328.98946    1.0051094       0.9455      0.44076      0.00327     -0.11346 
 1892000   -3302.7883    644.26927   -3947.0575    754.39123    14770.499   -19475.509    296.89421    730.12838    1.0032382        0.946      0.44112      0.00324     -0.11352 
 1893000    -3339.417    656.02351   -3995.4406    755.55187    14716.935   -19476.881    302.31084    585.18705    1.0123058       0.9465      0.44148      0.00321     -0.11358 
 1894000   -3297.9093     659.2826   -3957.1919    729.82678    14778.507    -19472.47     303.8127   -467.36948   0.98788159        0.947      0.44184      0.00318     -0.11364 
 1895000   -3329.3112    661.56345   -3990.8747    761.05165    14717.759   -19476.641    304.86377    297.55079    1.0014986       0.9475       0.4422      0.00315      -0.1137 
 1896000   -3282.1424    671.75049   -3953.8929     673.6497    14839.906   -19474.905     309.5582   -1079.3555   0.99606125        0.948      0.44256      0.00312     -0.11376 
 1897000   -3339.8725    666.46139   -4006.3339    793.72259    14670.324    -19474.57    307.12086    687.57766    1.0148983       0.9485      0.44292      0.00309     -0.11382 
 1898000   -3344.7971    672.55256   -4017.3496     744.6104    14708.613   -19476.288    309.92781   -29.872543     1.019239        0.949      0.44328      0.00306     -0.11388 
 1899000   -3307.9182    666.18228   -3974.1005    759.03877    14730.701    -19472.17    306.99224    205.80804   0.99257341       0.9495      0.44364      0.00303     -0.11394 
 1900000   -3387.2207    644.78997   -4032.0107    812.38467    14622.386   -19472.784    297.13417    337.07545   0.99219602         0.95        0.444        0.003       -0.114 
 1901000   -3369.5739    660.24553   -4029.8195    833.38553    14610.452   -19476.536    304.25644    1195.5523   0.99670792       0.9505      0.44436      0.00297     -0.11406 
 1902000   -3324.5818    657.27736   -3981.8592     747.3338    14740.874   -19478.791    302.88865   -55.671248   0.99394827        0.951      0.44472      0.00294     -0.11412 
 1903000   -3367.7781    651.01113   -4018.7892    793.70511    14658.353   -19478.767    300.00102    355.52507    1.0006853       0.9515      0.44508      0.00291     -0.11418 
 1904000    -3323.273    675.43111   -3998.7041    708.14086    14766.026   -19476.211    311.25431   -1159.8243   0.96912667        0.952      0.44544      0.00288     -0.11424 
 1905000   -3377.8919     636.0259   -4013.9178    736.13287    14717.899   -19477.305    293.09548   -553.09652   0.99019721       0.9525       0.4458      0.00285      -0.1143 
 1906000   -3395.4478    640.14681   -4035.5946      748.979    14689.255   -19478.323    294.99449   -638.87757   0.99718301        0.953      0.44616      0.00282     -0.11436 
 1907000   -3366.6821    651.30477   -4017.9869    808.12985     14641.88   -19473.161    300.13634     962.8559    1.0069754       0.9535      0.44652      0.00279     -0.11442 
 1908000   -3303.0795    677.43591   -3980.5154    792.83142    14693.423   -19476.808    312.17817    1202.0316    1.0075682        0.954      0.44688      0.00276     -0.11448 
 1909000   -3275.7813    680.07699   -3955.8583    744.93451    14768.357   -19476.415    313.39524    295.64069    1.0018072       0.9545      0.44724      0.00273     -0.11454 
 1910000   -3368.0906    642.65748   -4010.7481    742.91012    14720.236   -19476.728    296.15146   -538.44154   0.99869307        0.955       0.4476       0.0027      -0.1146 
 1911000   -3393.8923    649.00339   -4042.8957    738.52396    14689.675   -19476.192    299.07581   -288.96593    1.0195768       0.9555      0.44796      0.00267     -0.11466 
 1912000   -3308.6114    652.32365   -3960.9351    758.28195    14747.675   -19474.264    300.60586    293.23111    0.9925789        0.956      0.44832      0.00264     -0.11472 
 1913000   -3371.4042    614.40157   -3985.8058    749.00672    14736.616   -19477.148    283.13049   -209.91384    1.0150633       0.9565      0.44868      0.00261     -0.11478 
 1914000   -3289.7989    654.91944   -3944.7184    708.52644     14819.07    -19477.45    301.80206   -428.35972   0.99779331        0.957      0.44904      0.00258     -0.11484 
 1915000   -3452.3548    627.83203   -4080.1868    799.28478    14592.955   -19479.195    289.31956    223.68293    1.0170713       0.9575       0.4494      0.00255      -0.1149 
 1916000   -3311.1673    676.33186   -3987.4991    774.47005    14708.334   -19477.284     311.6694    321.50489    0.9992311        0.958      0.44976      0.00252     -0.11496 
 1917000   -3330.3557    681.32094   -4011.6766     769.6856    14691.667    -19476.92    313.96848     259.4884    1.0013977       0.9585      0.45012      0.00249     -0.11502 
 1918000   -3385.1191    674.04097   -4059.1601    829.12502    14583.013   -19477.511    310.61371    1422.5027    1.0220189        0.959      0.45048      0.00246     -0.11508 
 1919000   -3384.2913    649.05641   -4033.3477    765.84472    14676.195   -19477.865    299.10024    43.417083    1.0017244       0.9595      0.45084      0.00243     -0.11514 
 1920000   -3336.7932    628.95985   -3965.7531    689.31398    14813.801   -19476.522    289.83928   -1188.6505   0.99697435         0.96       0.4512       0.0024      -0.1152 
 1921000   -3338.7863    653.15313   -3991.9394    763.65885    14714.046   -19478.686     300.9881    45.966628   0.98388216       0.9605      0.45156      0.00237     -0.11526 
 1922000   -3391.8231    633.06431   -4024.8874     785.8252    14661.074   -19475.584    291.73071    331.37008    1.0031481        0.961      0.45192      0.00234     -0.11532 
 1923000   -3371.7903    663.70972      -4035.5    860.34604    14571.525   -19475.867    305.85283    1926.1124    1.0069823       0.9615      0.45228      0.00231     -0.11538 
 1924000    -3387.041    647.88562   -4034.9267    740.05978    14692.538   -19476.308    298.56071   -528.85885   0.99346465        0.962      0.45264      0.00228     -0.11544 
 1925000   -3372.6624    658.99505   -4031.6575    781.82831    14657.378   -19476.662     303.6802   -188.75486   0.98849981       0.9625        0.453      0.00225      -0.1155 
 1926000   -3449.0954    658.37413   -4107.4696    863.05749    14502.581   -19476.911    303.39406    1203.0541   0.99886135        0.963      0.45336      0.00222     -0.11556 
 1927000   -3366.6811    662.26984    -4028.951    759.40886    14680.463    -19474.31    305.18929   -226.60219   0.98657125       0.9635      0.45372      0.00219     -0.11562 
 1928000   -3414.4317     648.6556   -4063.0873    759.47549    14646.514   -19476.712    298.91554   -315.55764    1.0064399        0.964      0.45408      0.00216     -0.11568 
 1929000   -3344.4312    667.75756   -4012.1887      759.395    14696.072   -19475.271    307.71816    355.17733    1.0286252       0.9645      0.45444      0.00213     -0.11574 
 1930000   -3411.5271    653.45007   -4064.9772    689.82323    14717.084   -19476.697    301.12494   -1746.4382    1.0109253        0.965       0.4548       0.0021      -0.1158 
 1931000   -3316.4114    677.49895   -3993.9104    731.67198    14746.769   -19476.998    312.20722   -434.93165   0.99063249       0.9655      0.45516      0.00207     -0.11586 
 1932000   -3462.9024    622.30038   -4085.2028    783.57903    14601.752   -19475.569    286.77044   -304.73769    1.0075983        0.966      0.45552      0.00204     -0.11592 
 1933000   -3334.0178    676.25402   -4010.2718    733.67993    14724.405   -19476.492    311.63353   -370.64321     1.004777       0.9665      0.45588      0.00201     -0.11598 
 1934000   -3371.5716    644.70942    -4016.281    734.63009    14721.092   -19480.139    297.09705   -733.97436   0.99131319        0.967      0.45624      0.00198     -0.11604 
 1935000   -3387.0265    651.55781   -4038.5843    760.65325     14674.42   -19478.051    300.25294   -365.40606   0.98043513       0.9675       0.4566      0.00195      -0.1161 
 1936000   -3355.2917    674.10962   -4029.4013    795.62697    14648.168   -19478.318    310.64534    590.03267   0.99922692        0.968      0.45696      0.00192     -0.11616 
 1937000   -3348.5099    688.10119   -4036.6111    784.84531    14652.257   -19477.467    317.09298    466.18762     1.002152       0.9685      0.45732      0.00189     -0.11622 
 1938000   -3400.2523    653.62721   -4053.8795    810.77568    14603.534   -19476.203    301.20657    604.43917    1.0063348        0.969      0.45768      0.00186     -0.11628 
 1939000   -3378.2477    647.45878   -4025.7065    733.08481    14710.811   -19477.244    298.36402   -696.87748    1.0119995       0.9695      0.45804      0.00183     -0.11634 
 1940000   -3343.6299    632.46199   -3976.0919     732.1548    14766.077   -19478.304    291.45315   -296.11203   0.99206797         0.97       0.4584       0.0018      -0.1164 
 1941000   -3311.6193    671.44936   -3983.0687    729.89414    14758.744    -19477.47    309.41943   -246.37946     1.001695       0.9705      0.45876      0.00177     -0.11646 
 1942000   -3347.4431    653.19481   -4000.6379    734.73695    14734.782   -19475.228    301.00731   -352.18605    1.0146581        0.971      0.45912      0.00174     -0.11652 
 1943000   -3380.5748    651.12908   -4031.7039    745.01463    14691.707   -19477.496    300.05537   -401.18594   0.99991764       0.9715      0.45948      0.00171     -0.11658 
 1944000   -3368.4783    639.94457   -4008.4228    729.90077    14735.329   -19479.075    294.90129   -663.48009   0.99722135        0.972      0.45984      0.00168     -0.11664 
 1945000   -3376.7542    671.90775   -4048.6619    807.78072    14616.438    -19476.01    309.63067    1198.0727    1.0200016       0.9725       0.4602      0.00165      -0.1167 
 1946000    -3363.008    643.26224   -4006.2702    693.68428    14771.293   -19475.649    296.43015   -1126.2534    1.0025564        0.973      0.46056      0.00162     -0.11676 
 1947000   -3343.5976    653.38651   -3996.9841    746.76309     14724.92   -19477.504    301.09565    10.672637      1.00691       0.9735      0.46092      0.00159     -0.11682 
 1948000   -3406.3186    667.27559   -4073.5942    756.90454     14638.25    -19476.55    307.49606   -782.31639    1.0031411        0.974      0.46128      0.00156     -0.11688 
 1949000   -3372.7259     636.3157   -4009.0416    781.55184    14681.135   -19476.498    293.22903    421.54673    1.0153388       0.9745      0.46164      0.00153     -0.11694 
 1950000   -3393.4221    655.90371   -4049.3258    772.02241    14652.138   -19478.004    302.25564   -26.826019    1.0055484        0.975        0.462       0.0015       -0.117 
 1951000   -3343.7613    696.89921   -4040.6605    786.29842    14640.494   -19476.006    321.14731    234.25927    1.0089769       0.9755      0.46236      0.00147     -0.11706 
 1952000   -3380.8417    657.45839   -4038.3001    742.08548    14689.813   -19478.703    302.97207   -751.97015   0.99703941        0.976      0.46272      0.00144     -0.11712 
 1953000   -3400.7692    608.40112   -4009.1703    762.17619    14699.494   -19474.713    280.36534   -223.67305   0.99527749       0.9765      0.46308      0.00141     -0.11718 
 1954000   -3331.2837    664.50545   -3995.7891    777.66268    14697.268   -19476.494    306.21951    1032.2946    1.0256956        0.977      0.46344      0.00138     -0.11724 
 1955000   -3404.3645    641.04847    -4045.413    768.25245    14654.363   -19476.393    295.40999   -158.64131    1.0138025       0.9775       0.4638      0.00135      -0.1173 
 1956000   -3390.2221    662.64535   -4052.8675    751.18092    14665.397   -19476.657    305.36234   -7.1157213    1.0260761        0.978      0.46416      0.00132     -0.11736 
 1957000   -3341.0719    673.97173   -4015.0436    747.72954    14707.955    -19477.15     310.5818   -535.60362   0.97850566       0.9785      0.46452      0.00129     -0.11742 
 1958000   -3398.6095    642.43429   -4041.0438    772.45326    14658.387   -19477.301    296.04861    151.14424    1.0082893        0.979      0.46488      0.00126     -0.11748 
 1959000   -3352.9216     661.4777   -4014.3993    757.32865    14700.397    -19476.58    304.82426    64.742246    1.0028804       0.9795      0.46524      0.00123     -0.11754 
 1960000   -3331.7251    667.74096    -3999.466    732.29562     14739.04   -19475.579    307.71051   -239.54086    1.0010542         0.98       0.4656       0.0012      -0.1176 
 1961000   -3375.3522     634.5452   -4009.8974    776.90566    14683.182   -19476.233    292.41314    514.11613    1.0103547       0.9805      0.46596      0.00117     -0.11766 
 1962000   -3353.5713    676.72361   -4030.2949    806.44374      14634.9   -19478.541    311.84993    1127.1402    1.0245572        0.981      0.46632      0.00114     -0.11772 
 1963000   -3360.8497    671.24879   -4032.0985    785.95267    14654.212   -19478.328      309.327    314.14063   0.99596944       0.9815      0.46668      0.00111     -0.11778 
 1964000   -3366.3127    654.41032   -4020.7231    782.81202    14665.978   -19478.393    301.56745    187.73375   0.99389957        0.982      0.46704      0.00108     -0.11784 
 1965000   -3419.1814    629.35437   -4048.5357    757.23931    14663.129   -19475.195    290.02108   -770.29697   0.99341909       0.9825       0.4674      0.00105      -0.1179 
 1966000   -3391.9358    654.99934   -4046.9352    747.74712    14675.518   -19477.127    301.83888   -410.46135    1.0003193        0.983      0.46776      0.00102     -0.11796 
 1967000   -3357.1523    636.83077    -3993.983    713.98195    14763.457   -19477.752    293.46638   -444.87208    1.0106999       0.9835      0.46812      0.00099     -0.11802 
 1968000   -3346.5833    659.98955   -4006.5728    707.46345    14755.451   -19478.494    304.13849   -1013.0223    1.0086804        0.984      0.46848      0.00096     -0.11808 
 1969000   -3366.0294     642.3905   -4008.4199    793.69453    14666.866   -19475.874    296.02843     732.2034    1.0088964       0.9845      0.46884      0.00093     -0.11814 
 1970000   -3369.3933    675.71529   -4045.1086    710.04804    14717.166   -19477.602    311.38527   -1369.0743   0.98342695        0.985       0.4692       0.0009      -0.1182 
 1971000   -3409.9305     638.6684   -4048.5989    761.27246    14658.629    -19475.46     294.3132   -600.73217   0.99126462       0.9855      0.46956      0.00087     -0.11826 
 1972000   -3382.7439    634.88714   -4017.6311    770.94077    14681.122   -19477.433    292.57071    447.65639    1.0038673        0.986      0.46992      0.00084     -0.11832 
 1973000   -3357.1004    647.65195   -4004.7524    781.10274    14682.889   -19477.903    298.45303    401.78989   0.99249495       0.9865      0.47028      0.00081     -0.11838 
 1974000   -3376.7176    680.37416   -4057.0917    770.81439    14643.749   -19478.716    313.53218   -20.381221    1.0039195        0.987      0.47064      0.00078     -0.11844 
 1975000   -3372.3462    632.67593   -4005.0222     744.5384    14719.955   -19475.733    291.55174   -576.05157   0.99409929       0.9875        0.471      0.00075      -0.1185 
 1976000   -3409.7785    643.47818   -4053.2567    768.41718      14647.1   -19474.328    296.52966   -359.73972   0.99718276        0.988      0.47136      0.00072     -0.11856 
 1977000   -3350.7455    639.70338   -3990.4489    731.01248    14747.127   -19473.453    294.79015   -26.011781    1.0154677       0.9885      0.47172      0.00069     -0.11862 
 1978000   -3385.3839    629.99813   -4015.3821    742.59667    14709.198   -19476.823    290.31774   -908.33078   0.99009271        0.989      0.47208      0.00066     -0.11868 
 1979000   -3404.0826    640.98681   -4045.0694    823.48191    14603.225   -19477.056    295.38158    1319.5426    1.0186364       0.9895      0.47244      0.00063     -0.11874 
 1980000   -3341.4004    670.77192   -4012.1723    776.07709    14684.107   -19476.842    309.10725    334.21451    1.0048156         0.99       0.4728       0.0006      -0.1188 
 1981000   -3304.7949    693.11277   -3997.9077    734.02453    14736.674   -19480.051    319.40243    44.476877    1.0239522       0.9905      0.47316      0.00057     -0.11886 
 1982000   -3380.1773    629.36784   -4009.5452    702.34585     14756.96   -19474.026    290.02729   -1198.4597   0.99927843        0.991      0.47352      0.00054     -0.11892 
 1983000   -3378.3517    649.31243   -4027.6642    741.66963    14699.272   -19476.658    299.21822   -204.45067    1.0149508       0.9915      0.47388      0.00051     -0.11898 
 1984000   -3330.1886    668.10406   -3998.2927    772.18424    14698.641   -19477.711    307.87784    475.86682    0.9961184        0.992      0.47424      0.00048     -0.11904 
 1985000   -3347.4949    635.30923   -3982.8041    725.99731    14761.635   -19477.905    292.76522   -577.63595   0.97848733       0.9925       0.4746      0.00045      -0.1191 
 1986000   -3343.0591    646.31413   -3989.3732    721.85991    14756.831   -19477.433    297.83654    -406.2906    1.0020773        0.993      0.47496      0.00042     -0.11916 
 1987000   -3347.4196    620.65901   -3968.0786    762.28275    14737.978   -19475.638    286.01406    342.05779   0.99690279       0.9935      0.47532      0.00039     -0.11922 
 1988000   -3380.3775    655.88878   -4036.2663    752.01474    14684.898   -19478.384    302.24875   -149.30477    1.0145221        0.994      0.47568      0.00036     -0.11928 
 1989000   -3340.7901    639.71293    -3980.503    665.86222    14819.243   -19477.272    294.79455   -1548.7137      1.00083       0.9945      0.47604      0.00033     -0.11934 
 1990000   -3375.8509    628.01037   -4003.8613    734.45862    14733.499   -19478.881    289.40174   -597.43543    1.0041583        0.995       0.4764       0.0003      -0.1194 
 1991000   -3426.5868    640.13442   -4066.7213    772.82888    14633.273   -19478.596    294.98878    101.54679       1.0193       0.9955      0.47676      0.00027     -0.11946 
 1992000   -3287.0748    679.06774   -3966.1425    686.90358    14811.935   -19473.903    312.93016   -1291.1158   0.98542128        0.996      0.47712      0.00024     -0.11952 
 1993000   -3398.1098    666.54485   -4064.6546    779.57114    14629.733   -19478.506    307.15932    342.76417    1.0155549       0.9965      0.47748      0.00021     -0.11958 
 1994000   -3341.8369    656.79775   -3998.6347    751.24903    14718.354   -19476.662    302.66763    37.484789    1.0223697        0.997      0.47784      0.00018     -0.11964 
 1995000   -3366.0572    669.48732   -4035.5445    787.73403    14643.871   -19476.235    308.51528    148.54782    1.0064857       0.9975       0.4782      0.00015      -0.1197 
 1996000   -3329.5645    637.54933   -3967.1138    784.44104    14716.789   -19477.031    293.79751    1208.8526    1.0095651        0.998      0.47856      0.00012     -0.11976 
 1997000   -3326.2038    666.95977   -3993.1636    789.22542    14685.724   -19474.707    307.35052     791.2801    0.9970575       0.9985      0.47892        9e-05     -0.11982 
 1998000   -3356.5918    674.29123   -4030.8831    792.43438    14644.469   -19478.975    310.72903    560.19863    1.0022682        0.999      0.47928        6e-05     -0.11988 
 1999000   -3336.1497    693.29302   -4029.4428    785.53778    14658.441   -19480.258     319.4855    693.48836   0.99799988       0.9995      0.47964        3e-05     -0.11994 
 2000000   -3360.6376    641.68928   -4002.3268    752.46928    14710.662   -19473.887     295.7053   -298.14802   0.98439168            1         0.48            0        -0.12 
Loop time of 5906.27 on 12 procs for 2000000 steps with 1089 atoms

Performance: 29.257 ns/day, 0.820 hours/ns, 338.623 timesteps/s
93.2% CPU use with 12 MPI tasks x 1 OpenMP threads

MPI task timing breakdown:
Section |  min time  |  avg time  |  max time  |%varavg| %total
---------------------------------------------------------------
Pair    | 2733.6     | 2952.2     | 3147.4     | 193.4 | 49.98
Bond    | 1.9679     | 3.0374     | 5.0213     |  44.9 |  0.05
Kspace  | 1278.4     | 1477.9     | 1691.5     | 270.9 | 25.02
Neigh   | 213.89     | 214.62     | 215.16     |   2.3 |  3.63
Comm    | 560.08     | 566.61     | 580.66     |  28.2 |  9.59
Output  | 0.22809    | 0.23395    | 0.27605    |   2.6 |  0.00
Modify  | 562.68     | 574.16     | 583.19     |  28.1 |  9.72
Other   |            | 117.5      |            |       |  1.99

Nlocal:        90.7500 ave         101 max          82 min
Histogram: 2 2 1 0 1 2 1 1 1 1
Nghost:        3747.58 ave        3843 max        3651 min
Histogram: 1 0 0 4 1 2 1 1 1 1
Neighs:        31717.5 ave       37062 max       27036 min
Histogram: 1 0 2 1 3 1 3 0 0 1

Total # of neighbors = 380610
Ave neighs/atom = 349.50413
Ave special neighs/atom = 2.0495868
Neighbor list builds = 84203
Dangerous builds = 0

# write_restart restart.*.lmp
write_data data.*.lmp
System init for write_data ...
PPPM initialization ...
  using 12-bit tables for long-range coulomb (src/lammps/src/kspace.cpp:339)
  G vector (1/distance) = 0.26717933
  grid = 12 12 12
  stencil order = 5
  estimated absolute RMS force accuracy = 0.026359987
  estimated relative force accuracy = 7.9382318e-05
  using double precision FFTW3
  3d grid and FFT values/proc = 1859 144
Neighbor list info ...
  update every 1 steps, delay 10 steps, check yes
  max neighbors/atom: 2000, page size: 100000
  master list distance cutoff = 12
  ghost atom cutoff = 12
  binsize = 6, bins = 4 4 4
  3 neighbor lists, perpetual/occasional/extra = 3 0 0
  (1) pair lj/cut/coul/long, perpetual, skip from (3)
      attributes: half, newton on
      pair build: skip
      stencil: none
      bin: none
  (2) pair lj/cut/coul/long/soft, perpetual, skip from (3)
      attributes: half, newton on
      pair build: skip
      stencil: none
      bin: none
  (3) neighbor class addition, perpetual
      attributes: half, newton on
      pair build: half/bin/newton
      stencil: half/bin/3d/newton
      bin: standard
Total wall time: 1:48:13
