LAMMPS (29 Oct 2020)
OMP_NUM_THREADS environment is not set. Defaulting to 1 thread. (src/lammps/src/comm.cpp:94)
  using 1 OpenMP thread(s) per MPI task
# created by fftool

units real
boundary p p p

atom_style full
bond_style harmonic
angle_style harmonic
dihedral_style opls
special_bonds lj/coul 0.0 0.0 0.5

read_data data.0.lmp
Reading data file ...
  orthogonal box = (-13.443762 -13.443762 -13.443762) to (13.443762 13.443762 13.443762)
  2 by 2 by 3 MPI processor grid
  reading atoms ...
  1090 atoms
  scanning bonds ...
  1 = max bonds/atom
  scanning angles ...
  10 = max angles/atom
  scanning dihedrals ...
  12 = max dihedrals/atom
  reading bonds ...
  729 bonds
  reading angles ...
  377 angles
  reading dihedrals ...
  16 dihedrals
Finding 1-2 1-3 1-4 neighbors ...
  special bond factors lj:    0        0        0.5     
  special bond factors coul:  0        0        0.5     
     5 = max # of 1-2 neighbors
     4 = max # of 1-3 neighbors
     8 = max # of 1-4 neighbors
     9 = max # of special neighbors
  special bonds CPU = 0.001 seconds
  read_data CPU = 0.015 seconds
# read_restart restart.*.lmp
# reset_timestep 0

pair_style hybrid lj/cut/coul/long 10.0 10.0   lj/cut/coul/long/soft 1 0.5 10.0 10.0 10.0
pair_modify tail no
kspace_style pppm 1.0e-5

# use pair soft for atoms that may overlap
# zero epsilon between appearing and desappearing sites: 2-5 3-5
pair_coeff    1    1 lj/cut/coul/long     0.065999     3.500000  # C-CO C-CO
pair_coeff    1    2 lj/cut/coul/long     0.065999     3.500000  # C-CO C-D
pair_coeff    1    3 lj/cut/coul/long     0.044497     2.958040  # C-CO H-D
pair_coeff    1    4 lj/cut/coul/long     0.044497     2.958040  # C-CO H-H1
pair_coeff    1    5 lj/cut/coul/long     0.105924     3.304542  # C-CO OHD-
pair_coeff    1    6 lj/cut/coul/long     0.000000     1.870829  # C-CO HOD-
pair_coeff    1    7 lj/cut/coul/long     0.000000     1.870829  # C-CO Hw
pair_coeff    1    8 lj/cut/coul/long     0.101281     3.328551  # C-CO Ow
pair_coeff    2    2 lj/cut/coul/long     0.065999     3.500000  # C-D C-D
pair_coeff    2    3 lj/cut/coul/long     0.044497     2.958040  # C-D H-D
pair_coeff    2    4 lj/cut/coul/long     0.044497     2.958040  # C-D H-H1
pair_coeff    2    5 lj/cut/coul/long     0.000000     3.304542  # C-D OHD-
pair_coeff    2    6 lj/cut/coul/long     0.000000     1.870829  # C-D HOD-
pair_coeff    2    7 lj/cut/coul/long/soft     0.000000     1.870829  1.0  # C-D Hw
pair_coeff    2    8 lj/cut/coul/long/soft     0.101281     3.328551  1.0  # C-D Ow
pair_coeff    3    3 lj/cut/coul/long     0.030000     2.500000  # H-D H-D
pair_coeff    3    4 lj/cut/coul/long/soft     0.030000     2.500000  1.0  # H-D H-H1
pair_coeff    3    5 lj/cut/coul/long     0.000000     2.792848  # H-D OHD-
pair_coeff    3    6 lj/cut/coul/long     0.000000     1.581139  # H-D HOD-
pair_coeff    3    7 lj/cut/coul/long/soft     0.000000     1.581139  1.0  # H-D Hw
pair_coeff    3    8 lj/cut/coul/long/soft     0.068284     2.813139  1.0  # H-D Ow
pair_coeff    4    4 lj/cut/coul/long     0.030000     2.500000  # H-H1 H-H1
pair_coeff    4    5 lj/cut/coul/long     0.071414     2.792848  # H-H1 OHD-
pair_coeff    4    6 lj/cut/coul/long/soft     0.000000     1.581139  0.0  # H-H1 HOD-
pair_coeff    4    7 lj/cut/coul/long     0.000000     1.581139  # H-H1 Hw
pair_coeff    4    8 lj/cut/coul/long     0.068284     2.813139  # H-H1 Ow
pair_coeff    5    5 lj/cut/coul/long     0.170000     3.120000  # OHD- OHD-
pair_coeff    5    6 lj/cut/coul/long     0.000000     1.766352  # OHD- HOD-
pair_coeff    5    7 lj/cut/coul/long/soft     0.000000     1.766352  0.0  # OHD- Hw
pair_coeff    5    8 lj/cut/coul/long/soft     0.162549     3.142668  0.0  # OHD- Ow
pair_coeff    6    6 lj/cut/coul/long     0.000000     1.000000  # HOD- HOD-
pair_coeff    6    7 lj/cut/coul/long/soft     0.000000     1.000000  0.0  # HOD- Hw
pair_coeff    6    8 lj/cut/coul/long/soft     0.000000     1.779185  0.0  # HOD- Ow
pair_coeff    7    7 lj/cut/coul/long     0.000000     1.000000  # Hw Hw
pair_coeff    7    8 lj/cut/coul/long     0.000000     1.779185  # Hw Ow
pair_coeff    8    8 lj/cut/coul/long     0.155425     3.165500  # Ow Ow

variable TK equal 300.0
variable PBAR equal 1.0

neighbor 2.0 bin

timestep 1.0

velocity all create ${TK} 12345
velocity all create 300 12345

fix SHAKE all shake 0.0001 20 0 b 2 4 5 a 6
       1 = # of size 2 clusters
       0 = # of size 3 clusters
       2 = # of size 4 clusters
     360 = # of frozen angles
  find clusters CPU = 0.000 seconds

fix NPT all npt temp ${TK} ${TK} 100 iso ${PBAR} ${PBAR} 500
fix NPT all npt temp 300 ${TK} 100 iso ${PBAR} ${PBAR} 500
fix NPT all npt temp 300 300 100 iso ${PBAR} ${PBAR} 500
fix NPT all npt temp 300 300 100 iso 1 ${PBAR} 500
fix NPT all npt temp 300 300 100 iso 1 1 500

thermo_style custom step cpu epair emol etotal temp press density
thermo 1000

run 200000
PPPM initialization ...
  using 12-bit tables for long-range coulomb (src/lammps/src/kspace.cpp:339)
  G vector (1/distance) = 0.30693001
  grid = 24 24 24
  stencil order = 5
  estimated absolute RMS force accuracy = 0.0020308812
  estimated relative force accuracy = 6.1159385e-06
  using double precision FFTW3
  3d grid and FFT values/proc = 5415 1152
Neighbor list info ...
  update every 1 steps, delay 10 steps, check yes
  max neighbors/atom: 2000, page size: 100000
  master list distance cutoff = 12
  ghost atom cutoff = 12
  binsize = 6, bins = 5 5 5
  3 neighbor lists, perpetual/occasional/extra = 3 0 0
  (1) pair lj/cut/coul/long, perpetual, skip from (3)
      attributes: half, newton on
      pair build: skip
      stencil: none
      bin: none
  (2) pair lj/cut/coul/long/soft, perpetual, skip from (3)
      attributes: half, newton on
      pair build: skip
      stencil: none
      bin: none
  (3) neighbor class addition, perpetual
      attributes: half, newton on
      pair build: half/bin/newton
      stencil: half/bin/3d/newton
      bin: standard
Per MPI rank memory allocation (min/avg/max) = 15.89 | 15.91 | 16.08 Mbytes
Step CPU E_pair E_mol TotEng Temp Press Density 
       0            0    -230.1518   0.30946681    743.98832    449.58716    1836.3864    0.5580518 
    1000     2.521868   -3760.5629   0.59638535   -3110.7873    299.70574     -1277.28   0.79067362 
    2000    6.4192251   -3909.1391   0.91421188   -3248.8712    304.40296    627.21851   0.92857421 
    3000    10.268346   -3940.7682    1.1334682   -3276.1614     306.3049    64.045427   0.95775899 
    4000    14.082523   -3980.3178   0.72703825   -3315.8227    306.44098   -516.11728    0.9713616 
    5000    17.624753   -3986.9933   0.97116394   -3331.8999    301.98778    448.43239   0.99567394 
    6000    21.664252   -3974.9025    1.0491532   -3325.6418    299.25899    1089.0245   0.99594225 
    7000    25.724321   -3973.4042    1.2266124   -3319.8817    301.14462     -631.528   0.99259551 
    8000    29.845153    -3999.484    1.3430577   -3294.1046    325.03158    1368.4767     1.012368 
    9000    34.039461   -3984.4415    2.3785255   -3351.2993    291.20387   -438.77481   0.97642373 
   10000    38.183667   -4037.7273    2.2095969   -3395.7868    295.34372   -984.96694   0.99818857 
   11000    42.367021   -3997.3189    2.1442011   -3363.2113    291.75775   -1091.1831    1.0039892 
   12000    46.575262    -4073.485    2.3394411   -3434.8881    293.74018    621.12936    1.0405273 
   13000    50.727131   -4010.1755    1.7231229   -3359.5092    299.59675   -747.11584   0.99118641 
   14000    54.823416   -3986.3652    2.1623017   -3335.9597    299.27361    249.86403    1.0084337 
   15000    59.017138   -3993.7518    1.9576255   -3331.6366     304.7741   -291.48575   0.99195043 
   16000    63.131847   -3974.8869    1.0161967   -3328.9697    297.73063   -1487.8026   0.97866821 
   17000    67.235916   -3959.6335    3.1939806   -3269.7971    317.00135   -445.02078   0.97123803 
   18000    71.450205   -4056.6436    1.9785575   -3399.9348    302.26846    2182.4641    1.0163795 
   19000    75.429518   -3982.4563    1.9145465   -3348.4174    291.83208   -40.427517   0.96488327 
   20000    79.475519   -4012.4915    1.8341835   -3377.8244    292.15917   -603.59869   0.95566644 
   21000    83.677958   -3961.4434    1.4602537   -3293.4518    307.71668    98.917589   0.97258011 
   22000    87.876111   -3960.8562     2.218745   -3291.3414    308.06971   -410.85298   0.98837434 
   23000     91.94455    -4000.328    1.6954705   -3366.2844    291.93533   -439.64395   0.96683636 
   24000    96.041839   -4001.7718    1.2473016   -3363.7499    293.97895   -277.96571   0.99308311 
   25000    100.15633   -3925.8349    2.0246259   -3288.4895    293.30774    -136.7356    1.0037882 
   26000    104.36503    -3912.692    3.1960915   -3238.7346    309.66953    408.15188    1.0031359 
   27000    108.51156   -3972.0584    2.3968298   -3271.7433    322.20701   -732.12466   0.98319581 
   28000    112.59551   -3993.6119    2.7131783   -3358.6548    291.88727    33.154459   0.97850519 
   29000    116.67223   -3954.6271    3.0017509   -3310.0673    296.18732    543.39356   0.99149013 
   30000    120.65739   -3958.2949    3.3229641   -3346.9928    280.68496   -1012.3212    1.0047575 
   31000    124.56191   -3951.9236    5.5925193   -3312.5311    292.60566   -290.47017   0.96918405 
   32000    128.63594   -4008.7644    3.0454472   -3358.4902    298.80526    942.71891   0.99518794 
   33000     132.7509    -3961.563    2.4387925    -3283.978    311.69388   -328.85607   0.99214914 
   34000    136.92565   -4031.5325       3.5345   -3389.6473    294.70654   -201.91394   0.98487894 
   35000    140.96509   -3997.8744    3.8332043   -3341.7581    301.13871   -732.17902   0.97801739 
   36000    145.00257   -3985.2868    3.7447825   -3335.8391    298.10087     272.8159   0.97006646 
   37000    149.10374   -3963.3399     4.888732   -3319.9171    294.79119    350.68483   0.99470236 
   38000    153.21502   -3954.9168    3.6882194   -3286.8458    306.72474   -33.700579   0.98930832 
   39000    157.37814    -4029.811    3.0183594   -3364.6338    305.69805    61.375009   0.99705215 
   40000    161.51284   -4004.8359    1.9235433   -3346.5739    303.01094   -1518.8773   0.98561236 
   41000    165.64411   -3993.5125    2.9233521   -3315.1075    311.84874   -604.89412   0.99481473 
   42000    169.68312   -3972.7468    2.3758277    -3310.021    304.86292   -593.62968   0.98153527 
   43000     173.7119   -3983.0343    3.2910027   -3320.0637    304.55345    568.14606   0.97112826 
   44000    177.76103   -4003.7382    5.0943285   -3331.1041    308.18225   -123.62155   0.99133905 
   45000     181.6937   -4027.7234    3.5533034   -3387.5911    293.88863   -57.425615   0.98533011 
   46000     185.7463    -4022.952    2.7672177   -3383.7969    293.80035    100.10513   0.99506749 
   47000    189.88194   -3974.7942     3.395664   -3316.8909    302.16572   -1315.9427   0.97871551 
   48000    193.93683   -3995.0074    3.5827672   -3365.4867      288.976   -911.04518    0.9804356 
   49000    198.02876   -3979.4125    6.9125234   -3346.7876    288.87188   -305.89012   0.99540919 
   50000    202.06188   -4008.9584     4.127411   -3352.4925     301.1643    681.06962   0.99785731 
   51000    206.11551   -4064.4031    3.1192233   -3460.6796    277.28021    1797.4162    1.0138457 
   52000    210.19287   -4015.3941    3.3056984   -3335.0219    312.58043   -482.49764   0.98921214 
   53000    214.40708   -4040.3742    3.1065386   -3368.8307    308.59648    494.13336    1.0080315 
   54000    218.49955   -4032.1953    5.6431757   -3363.9771    305.89019    1065.5607    1.0005512 
   55000     222.5917   -4028.8339    6.5940611   -3383.6144    294.83337   -492.46498    1.0161363 
   56000     226.5516   -3989.5989     4.158584   -3362.6419    287.52656   -421.74346   0.99978957 
   57000    230.42752   -3987.1719    4.3767323   -3343.0761    295.33825   -610.06676    0.9913266 
   58000    234.52737   -3962.9402    4.9355156   -3316.6213    296.10665    715.96001   0.99029874 
   59000    238.73856   -4016.6906    3.0067024   -3354.2832    304.42469   -871.48849    0.9817091 
   60000    242.78724   -4015.4343    4.3558717   -3353.6229    303.52664     316.0464   0.97739887 
   61000    246.81159   -4027.0171    5.1737874   -3368.3008    301.72017   -111.05183   0.99014744 
   62000    250.80061   -3956.0908     5.111072    -3326.599    288.25707    408.98585   0.96684372 
   63000    254.68616   -4008.0673    8.5694826   -3336.7947    305.94932    1285.3147    0.9640612 
   64000    258.56021   -4008.1952     5.767814   -3337.1561    307.13493     300.7018   0.96239881 
   65000    262.34689   -3987.0731     4.507263   -3317.9552    306.82997    -213.3437   0.98042604 
   66000    266.34815   -4002.5089    5.4206492   -3353.0789    297.31896   -389.65772   0.97473328 
   67000    270.41735      -4092.7    3.7415611   -3427.7874    305.24202    366.29968   0.99802964 
   68000    274.46193   -4039.0585    3.9082514   -3381.0188    301.99204   -614.36062   0.97886156 
   69000    278.59131   -4044.3394    4.5942196   -3406.0282    292.56735    -757.7717   0.98761895 
   70000    282.62254   -4006.5927    2.8985541   -3360.7724    296.81685    572.90493   0.99307457 
   71000    286.63738   -4001.0517    3.1613347   -3326.9325    309.76023     537.4979   0.97640381 
   72000    290.67545   -4016.0838    5.0300855   -3377.5085    292.48803    1030.3645   0.99513533 
   73000    294.58398   -4027.7297    3.9449953   -3377.8684    298.19936   -913.67906    0.9633626 
   74000    298.59708   -3996.3239    4.0496797   -3312.5927    313.78772   -160.69921   0.97892702 
   75000    302.60769   -3989.3333    5.9700273   -3344.5417    294.92391    129.48521   0.98335075 
   76000    306.70749    -4054.621    3.4015329   -3435.8544    284.09481    144.06329    1.0058648 
   77000    310.77709   -4048.3467    3.6662202   -3395.6655    299.62992   -153.52453    1.0062367 
   78000    314.88834   -4019.5408    3.0584627   -3411.0191    279.52343   -584.12614     1.009935 
   79000    318.99679   -4000.0528    4.1460932   -3318.4067    312.78058   -410.51613   0.99311389 
   80000     323.0952   -4043.9996    6.3842219   -3390.1328     298.9225   -185.18481    0.9918148 
   81000    327.20874   -4015.1565    3.9464857   -3360.1078    300.59355    314.04998     1.016105 
   82000    331.28157   -3974.6901    5.1909034   -3307.3988    305.67102    63.881969   0.98768758 
   83000    335.33317   -3909.3111    5.4942086   -3268.9042    293.11936   -88.845594   0.94411008 
   84000    339.35697   -4014.5648    4.4141797   -3344.6144    307.25724   -278.90415   0.97978144 
   85000    343.42572   -3971.8283    4.2496331    -3357.338    281.72903   -1402.3007   0.99500906 
   86000    347.51596   -3977.6629    5.2465057   -3356.8727    284.17727    -738.8419   0.97224664 
   87000     351.6088   -4001.4197    5.5823785   -3323.9702    310.18004   -850.98452   0.98207196 
   88000    355.78844   -4074.4577    4.1724077   -3413.0361    303.43142    716.09326   0.99590659 
   89000    359.93491   -4003.7669    5.9144415   -3324.4599    310.88427   -1038.9137     0.974803 
   90000    363.81999   -3966.4034     4.957977   -3311.8467    299.89943    27.975013    1.0041427 
   91000    367.84023   -3939.8816    4.9166762   -3283.1235    300.93481   -201.71502    1.0118066 
   92000    371.87336    -3964.999    3.7339465   -3319.4701    296.29664   -510.06335    1.0087623 
   93000    375.87218   -3976.7691    4.2506883   -3331.0584    296.14203   -740.14379   0.96988768 
   94000    379.90009   -3960.8861     2.823427   -3293.4543    306.82889    750.83694    1.0007408 
   95000    383.92504   -3982.7189    3.0051603    -3322.549    303.39241   -770.89718   0.98032313 
   96000    386.83176   -4019.7087    3.5340026    -3363.039    301.53231    39.251098   0.99157442 
   97000    389.34719   -4010.7373    3.2820765   -3335.2069    310.35605   -455.49005   0.97819937 
   98000    392.29554   -3946.7507    3.7836653   -3290.4475    301.24783    479.65887   0.99822286 
   99000     396.4586   -4017.1685    3.1328314   -3363.9992    300.10148    824.06025    1.0068177 
  100000    400.51558   -3980.2812    3.3339736    -3365.581    282.24869   -1018.5456   0.95804137 
  101000    404.62794   -4046.6679    5.0341216   -3424.1646    285.06624     809.8347   0.99867991 
  102000    408.71503   -4008.0239    2.6160902   -3375.4854    290.81551   -811.13535   0.98175754 
  103000    412.81222   -3945.6955    4.6989386   -3301.0102    295.46168   -144.95219   0.99265613 
  104000     416.9083     -4009.29    5.0668659   -3371.0034    292.33775   -883.71918   0.98397047 
  105000     421.0217   -3995.9658    5.6169767   -3385.7745    279.11304    823.22331   0.99126453 
  106000    425.09244   -3972.1927    3.3445844   -3306.8431    305.62702    377.53717    1.0000327 
  107000    429.15702   -3961.5261    2.7479754   -3298.7379    304.71992    871.63497   0.98376983 
  108000    433.24119   -3998.0845     4.768875   -3333.7692    304.49196    974.29734   0.99142874 
  109000    437.31018   -4040.4901    3.1278731   -3386.3856    300.53554   -28.100969   0.98478453 
  110000    441.37786    -4053.686    4.6027198   -3393.5207    302.65274   -2176.0606   0.98809975 
  111000    445.51797   -4007.8893    4.4171932   -3373.5208     290.8288   -683.63855    0.9805862 
  112000    449.66346   -3964.7972    4.7381342   -3299.9373    304.75758    1.6110286    1.0030861 
  113000    453.76082   -4025.1176    2.9947319   -3377.5871    297.56198   -110.72924   0.98514869 
  114000    457.84279   -4000.9798    6.3493201   -3327.6062    307.94425   -474.22678   0.97526853 
  115000    461.87233   -3949.1817    3.3527851    -3317.127    290.25203   -69.979324   0.99021911 
  116000    466.01822     -3947.36     4.965743   -3256.6436    316.58962   -887.19073   0.99224593 
  117000    470.10657   -3953.8818    2.2683616   -3314.3691    294.19576    65.667445   0.98404111 
  118000    474.20291   -3941.6139    1.7111792   -3284.7357    302.47009    181.21808   0.99357454 
  119000    478.40228   -4010.7301    2.7820273   -3369.3486     294.8214    419.45239    1.0176668 
  120000    482.60245   -4003.6335    3.5345791    -3343.819    302.98388    673.51472    1.0015215 
  121000     486.7193   -4019.9348    3.2613967   -3389.6484    289.47786    1229.0963    1.0071674 
  122000    490.82095   -3978.0754    3.8882811   -3314.6772    304.47511    125.82345   0.99180717 
  123000    494.97312   -4005.5053    4.4100286   -3335.2268    307.41062    46.682849   0.98052858 
  124000    499.17812   -4001.6245    4.0739449   -3334.7132    306.01129    457.68168    0.9858825 
  125000    503.32962    -4010.101    4.5155019   -3344.9019    305.01695    719.88627   0.97882512 
  126000    507.45673    -3996.009    2.8246029   -3365.4927    289.78563    590.68069   0.99683163 
  127000    511.70133   -3938.4699     4.361478   -3282.0154    301.05096   -241.55177   0.99693357 
  128000    515.87034   -3964.3613    4.0073233   -3301.2061    304.30795    662.90716   0.98737194 
  129000    519.97027   -3972.1691     4.317556   -3325.0874    296.74409    325.89352   0.97668739 
  130000    524.10851   -3994.7576    4.2622205   -3339.2692    300.65076   -422.02232   0.98291355 
  131000    528.21569   -4056.8551    4.3325839   -3422.4662    290.87733   -763.70697   0.99304831 
  132000    532.38041    -4030.438    2.6306991   -3359.4663    308.55214    563.98552   0.98325514 
  133000    536.51502   -4027.2808    3.9931128   -3392.4497    291.23819    367.69655    0.9782162 
  134000    540.66546   -4005.2759    3.2596501   -3395.3202    280.09257   -807.69488   0.98001529 
  135000    544.84468    -3986.752    3.7394064   -3335.9863     298.7118    -482.0525   0.99420977 
  136000    548.97369   -4025.3645    2.7302154   -3384.4538    294.62795    126.87997    0.9924505 
  137000    553.18689   -4024.4739    3.1269812   -3368.0014    301.62921   -744.34318   0.98654793 
  138000    557.45726   -4022.7738     5.299982   -3383.3275    292.76555   -542.01356     0.979804 
  139000    561.64297   -3972.1501    3.8872031   -3344.5584    287.94487   -392.37423   0.96995949 
  140000    565.78305   -3999.5034    3.4112404   -3367.2319     290.3251   -332.72559   0.98088339 
  141000    570.00468   -3987.4548    3.6083117   -3315.7693    308.43033   -140.55419   0.99395087 
  142000    574.16345   -3993.8509    4.1636554    -3338.516    300.62539    -327.1675   0.98998269 
  143000    578.29571   -3974.4392    1.9001533   -3313.6566    304.18539    104.96584    1.0014302 
  144000     582.4891     -4033.93    3.5544129   -3409.9123     286.4485   -554.00493   0.98339341 
  145000    586.53694   -3960.5379    6.3619224   -3260.4024    320.29357    944.10113    0.9887659 
  146000    590.66243   -3974.3913     5.258089   -3312.3084    303.23546    863.36735   0.98324799 
  147000    594.81042   -4019.9453    3.4097057   -3368.3864    299.23022    188.86557   0.98513631 
  148000    598.96611   -3958.3253    1.3246063   -3298.8357     303.8542    1452.4086   0.98128233 
  149000    603.12485   -4039.7496    2.5429347   -3404.0027    292.33047    473.61074   0.97683601 
  150000    607.23706   -4001.4892     1.670871   -3383.2555    284.64778   -513.56719   0.97757686 
  151000    611.40056   -4013.2161    3.5783048   -3345.3297    306.69027   -332.63964   0.98779128 
  152000    615.61379   -3978.2156    2.8407917   -3337.2928    294.58248   -1070.9781   0.99454336 
  153000    619.76633   -4026.8717    4.0115247   -3388.4128    292.90449   -961.26217   0.95961246 
  154000    623.87159   -3995.7692     3.062491   -3323.6857    308.86608    412.62612   0.99164579 
  155000    627.94937   -4084.0998    2.6029381   -3473.9858    280.46886    317.58734    1.0175158 
  156000    632.03365   -4030.8757    4.1470358   -3354.8765    310.17311   -466.43574   0.99396449 
  157000    636.09231    -3994.759    1.9270234   -3350.4998    296.54468    355.14758    0.9836794 
  158000    640.20039   -4009.4372    6.3730375   -3388.2027    283.86232    161.11785   0.98576003 
  159000    644.31816   -3977.4001     4.330539   -3334.0707    295.00576    1571.8247    1.0073938 
  160000     648.3885   -3993.5967    4.5564028   -3335.9606    301.50645     314.5924    1.0000641 
  161000    652.51089   -3978.3875    4.1383737    -3315.814    303.97894    438.32661   0.98779553 
  162000    656.61871   -4009.3546    2.7766612   -3352.0406    302.17941   -345.94553   0.99621464 
  163000    660.76423   -3956.6283    3.7207588   -3287.0917    307.38634   -881.92759   0.98797695 
  164000    664.77278   -3970.7688    3.4753576   -3320.9844    298.38067   -505.30241    0.9863361 
  165000    668.64283   -3945.6586    2.2712996   -3270.5469    310.62939   -55.386601    0.9702413 
  166000     672.4345   -3962.7144    6.7155024   -3338.6633    285.00453    1151.5089   0.98195499 
  167000    676.14095   -3958.3529    5.4119285   -3301.7878    300.61708    595.30051   0.99450324 
  168000    679.15935   -3970.7851    3.9726662   -3342.5453    288.20459    245.71114    0.9885254 
  169000    682.72003   -4015.7686    4.0889626    -3351.836    304.62918   -95.987498   0.98299438 
  170000    685.46843   -4004.9101    5.7179376   -3337.9041    305.29602   -1145.8577   0.98986798 
  171000    689.58676   -3969.6682    5.2303024   -3295.7981     308.6901    354.68998   0.98348486 
  172000    693.72426   -4009.6681    3.6320193   -3329.7688    312.21146    45.599589    1.0050605 
  173000    697.90093   -4018.2986   0.96987754   -3374.7492    296.65885   -139.32428    1.0116225 
  174000    701.97858   -4041.8941    1.7346108   -3384.1325    302.86715    937.97394    1.0008739 
  175000    705.97585   -4049.8237    2.0609413   -3384.1509    306.36886   -311.29634   0.99741503 
  176000    710.02409   -3975.9202    3.8911942   -3314.9717     303.3428    1356.4168   0.97859067 
  177000    714.08857   -3978.6397    2.3620574   -3301.3936    311.57285   -58.712829   0.99128911 
  178000    718.23859   -4019.4242     3.205711    -3383.743    291.99416    193.79612    1.0037976 
  179000    722.33296    -3973.122    5.7203023   -3343.7767    287.90816    32.120737    0.9889566 
  180000       726.53   -4038.0889    4.7359339   -3421.7365    282.36419    1135.1374    1.0031188 
  181000    730.58453   -4029.7656    4.6563667   -3360.7251    306.72538   -338.14915   0.98828666 
  182000    734.67246    -4002.317    2.8582252   -3344.2077    302.50891   -687.15293   0.98334534 
  183000    738.80246   -3971.5007    3.1281342   -3285.6628    315.18577   -58.706558    1.0084404 
  184000    742.90848   -3977.3846    3.2604023   -3303.6088      309.556   -393.93446   0.98425688 
  185000    746.96773   -4016.8919    2.9764713   -3385.3321    290.19728   -1162.5038   0.97756575 
  186000     751.0385   -3996.4774    4.4959128   -3361.1943    291.21472   -503.69506   0.98874562 
  187000    755.10416   -3979.7172    3.2761839   -3334.1443     296.5283    49.389038   0.99090683 
  188000    759.13637   -4006.3563    4.1058743   -3352.0286     300.1871    845.66061   0.99026121 
  189000    763.16732    -3991.605    5.5268164    -3320.565    307.24661    -1263.886   0.98013253 
  190000    767.24057   -3995.2184    5.2983353   -3360.5327    290.56843    590.26457    0.9868963 
  191000     771.3049    -4001.867    3.9743796    -3296.887    323.63239    574.36738   0.98436517 
  192000    775.38236    -4043.464    6.2478737    -3405.615     291.5905   -448.48646   0.99695458 
  193000    779.30689   -3932.8563     3.656468    -3279.021    300.16721   -923.69217   0.98205237 
  194000    782.50359   -3922.2085    3.3985446   -3239.5882    313.57543   -1193.6956   0.96452928 
  195000    786.51374    -3994.321    5.4418688   -3338.2574    300.37171    787.85118    1.0164835 
  196000    790.57153   -4031.2598    3.6287024   -3378.3763    299.74065    369.55055    1.0102649 
  197000    794.57919   -4036.9704    3.9597122   -3385.3709    298.99507   -67.467406   0.98625719 
  198000    798.61043   -3972.0522    3.8558904   -3283.8506    315.94102    1728.6236   0.98982417 
  199000    802.29638   -3997.6043    3.2329464   -3373.0759     286.8327    652.58486   0.99825249 
  200000    805.05451   -3989.8671    4.9888731   -3315.4318    309.06247    -1737.717   0.97162748 
Loop time of 805.055 on 12 procs for 200000 steps with 1090 atoms

Performance: 21.464 ns/day, 1.118 hours/ns, 248.430 timesteps/s
91.0% CPU use with 12 MPI tasks x 1 OpenMP threads

MPI task timing breakdown:
Section |  min time  |  avg time  |  max time  |%varavg| %total
---------------------------------------------------------------
Pair    | 262.92     | 278.06     | 293.1      |  63.2 | 34.54
Bond    | 0.23838    | 0.60998    | 1.6436     |  53.1 |  0.08
Kspace  | 259.62     | 274.63     | 289.27     |  62.8 | 34.11
Neigh   | 21.94      | 21.987     | 22.051     |   0.7 |  2.73
Comm    | 59.199     | 60.576     | 63.291     |  15.2 |  7.52
Output  | 0.011903   | 0.012344   | 0.016729   |   1.2 |  0.00
Modify  | 150.16     | 157.07     | 160.66     |  23.3 | 19.51
Other   |            | 12.1       |            |       |  1.50

Nlocal:        90.8333 ave         102 max          81 min
Histogram: 3 0 0 2 2 2 0 1 0 2
Nghost:        3709.92 ave        3742 max        3677 min
Histogram: 2 1 0 1 1 0 3 2 1 1
Neighs:        31732.8 ave       37483 max       27572 min
Histogram: 1 3 0 2 3 1 0 1 0 1

Total # of neighbors = 380793
Ave neighs/atom = 349.35138
Ave special neighs/atom = 2.0587156
Neighbor list builds = 8444
Dangerous builds = 1

reset_timestep 0

variable lambda equal ramp(0.0,1.0)
variable minusl equal 1.0-v_lambda
variable q1 equal  0.145*v_lambda-0.180*(1.0-v_lambda)
variable q2 equal -0.180*(1.0-v_lambda)
variable q3 equal  0.060*(1.0-v_lambda)
variable q4 equal  0.040*v_lambda+0.060*(1.0-v_lambda)
variable q5 equal -0.683*v_lambda
variable q6 equal  0.418*v_lambda

fix ADAPT all adapt/fep 100000     pair lj/cut/coul/long/soft lambda 2*3 7*8 v_minusl     pair lj/cut/coul/long/soft lambda 3 4 v_minusl     pair lj/cut/coul/long/soft lambda 4 6 v_lambda     pair lj/cut/coul/long/soft lambda 5*6 7*8 v_lambda     atom charge 1 v_q1     atom charge 2 v_q2     atom charge 3 v_q3     atom charge 4 v_q4     atom charge 5 v_q5     atom charge 6 v_q6     after yes

variable dlambda equal  0.05
variable minusdl equal -0.05
variable dq1 equal (0.145+0.180)*v_dlambda
variable dq2 equal  0.180*v_dlambda
variable dq3 equal -0.060*v_dlambda
variable dq4 equal (0.040-0.060)*v_dlambda
variable dq5 equal -0.683*v_dlambda
variable dq6 equal  0.418*v_dlambda

compute FEP all fep ${TK}     pair lj/cut/coul/long/soft lambda 2*3 7*8 v_minusdl     pair lj/cut/coul/long/soft lambda 3 4 v_minusdl     pair lj/cut/coul/long/soft lambda 4 6 v_dlambda     pair lj/cut/coul/long/soft lambda 5*6 7*8 v_dlambda     atom charge 1 v_dq1     atom charge 2 v_dq2     atom charge 3 v_dq3     atom charge 4 v_dq4     atom charge 5 v_dq5     atom charge 6 v_dq6     volume yes
compute FEP all fep 300     pair lj/cut/coul/long/soft lambda 2*3 7*8 v_minusdl     pair lj/cut/coul/long/soft lambda 3 4 v_minusdl     pair lj/cut/coul/long/soft lambda 4 6 v_dlambda     pair lj/cut/coul/long/soft lambda 5*6 7*8 v_dlambda     atom charge 1 v_dq1     atom charge 2 v_dq2     atom charge 3 v_dq3     atom charge 4 v_dq4     atom charge 5 v_dq5     atom charge 6 v_dq6     volume yes

fix FEP all ave/time 20 4000 100000 c_FEP[*] file fep01.fep

thermo_style custom step cpu epair emol etotal temp press density v_lambda

dump TRAJ all custom 20000 dump.lammpstrj id mol type element xu yu zu
dump_modify TRAJ element C C H H O H H O

#restart 20000 restart1.lmp restart2.lmp

run 2000000
PPPM initialization ...
  using 12-bit tables for long-range coulomb (src/lammps/src/kspace.cpp:339)
  G vector (1/distance) = 0.30705953
  grid = 20 20 20
  stencil order = 5
  estimated absolute RMS force accuracy = 0.0026525602
  estimated relative force accuracy = 7.9881064e-06
  using double precision FFTW3
  3d grid and FFT values/proc = 4046 800
FEP settings ...
  temperature = 300.000000
  tail no
  lj/cut/coul/long/soft lambda 2-3 7-8
  lj/cut/coul/long/soft lambda 3-3 4-4
  lj/cut/coul/long/soft lambda 4-4 6-6
  lj/cut/coul/long/soft lambda 5-6 7-8
  1-1 charge
  2-2 charge
  3-3 charge
  4-4 charge
  5-5 charge
  6-6 charge
Neighbor list info ...
  update every 1 steps, delay 10 steps, check yes
  max neighbors/atom: 2000, page size: 100000
  master list distance cutoff = 12
  ghost atom cutoff = 12
  binsize = 6, bins = 4 4 4
  3 neighbor lists, perpetual/occasional/extra = 3 0 0
  (1) pair lj/cut/coul/long, perpetual, skip from (3)
      attributes: half, newton on
      pair build: skip
      stencil: none
      bin: none
  (2) pair lj/cut/coul/long/soft, perpetual, skip from (3)
      attributes: half, newton on
      pair build: skip
      stencil: none
      bin: none
  (3) neighbor class addition, perpetual
      attributes: half, newton on
      pair build: half/bin/newton
      stencil: half/bin/3d/newton
      bin: standard
Per MPI rank memory allocation (min/avg/max) = 17.08 | 17.23 | 17.29 Mbytes
Step CPU E_pair E_mol TotEng Temp Press Density v_lambda 
       0            0   -3989.8626    4.9888731   -3315.4273    309.06247   -1593.3122   0.97162748            0 
    1000     2.861754   -4046.4348    2.6482196   -3399.6567    297.37458    573.11551   0.99943058       0.0005 
    2000    6.2354362   -4015.3429    4.7206277   -3376.1076     292.9356   -914.46001    1.0056144        0.001 
    3000    9.6035216   -4020.2847    3.8734624   -3389.7465    289.31151    749.99923   0.99712019       0.0015 
    4000     12.94163   -4064.0509    2.6404179   -3412.6315    299.52096   -614.95013   0.98609213        0.002 
    5000    15.631035   -4029.8551    4.0986409   -3358.1051    308.23376    -481.9684   0.97864571       0.0025 
    6000    17.847868   -3987.1666    6.0966225   -3317.6476    306.28135    -177.3341   0.96402149        0.003 
    7000    21.216911   -3962.7108    3.8001512   -3300.6418    303.90213    -684.8158   0.95766993       0.0035 
    8000    24.640888   -3972.1824    4.8518107   -3334.9711     291.9406     1540.407    1.0023916        0.004 
    9000    28.092244   -4000.4833    5.5493665   -3371.8821    287.64355   -638.06677   0.98354656       0.0045 
   10000    31.524889   -4011.5914    5.6014225   -3345.7067    304.83212    91.319269   0.97993114        0.005 
   11000    34.994835   -4084.2988    5.8989404   -3449.7734    290.21719    334.58588   0.99263653       0.0055 
   12000    38.419943   -4004.3267    6.6463158   -3352.8733    297.68731   -251.07973   0.99568526        0.006 
   13000    41.863036   -4057.4119    7.0960247   -3366.2432    315.81494   -302.43876    1.0184581       0.0065 
   14000    45.337643   -3985.6322    3.2921874   -3318.4776     306.4845   -450.56741   0.97514814        0.007 
   15000     48.77888   -4018.6684    7.7863333   -3329.6337    314.51107    1818.0177    1.0158004       0.0075 
   16000    52.253076   -3935.2491    5.1507857   -3311.0922    285.77574    405.66107   0.99814814        0.008 
   17000    55.709986   -3986.7236    8.9574591     -3319.59    303.85934   -393.75196    1.0057428       0.0085 
   18000    59.186539   -3935.5024    7.3304685   -3301.8265     289.1641   -1108.0719   0.99369233        0.009 
   19000    62.591856   -3963.0497    3.2999244   -3294.9374    306.92308   -313.32187   0.99200655       0.0095 
   20000    66.033022   -3941.1389    6.9070949   -3286.1983     299.1768   -144.73908   0.96557518         0.01 
   21000    69.710279   -3996.1626    2.4259903   -3300.9165    319.85339    204.95103   0.99074933       0.0105 
   22000    73.592649   -3957.1778    3.5595779   -3297.1781    303.05789   -416.10338   0.99811997        0.011 
   23000     77.39801   -3908.9747    6.1614106   -3231.0334    310.13974    882.19077   0.96803769       0.0115 
   24000    81.247439   -4001.0604    3.6941967   -3350.3428    298.71045   -488.13745   0.97730169        0.012 
   25000    85.048216   -4016.4603    6.1929555   -3349.9873    304.83065   -781.96387    0.9882948       0.0125 
   26000    88.825353   -3971.6918    3.8727837    -3317.304    300.32242   -578.53777   0.97592468        0.013 
   27000    92.640572   -3989.9522    7.0500875   -3335.9713    298.66773    18.073869   0.98099454       0.0135 
   28000    96.424165   -3990.6301     7.001533   -3314.6113    308.86432     -583.029   0.99576334        0.014 
   29000    98.993591   -3960.9647    6.1807549   -3295.8706    304.19968   -236.98089   0.97565273       0.0145 
   30000     101.4451   -3989.4585    7.1152559   -3329.3097    301.48516   -278.23901   0.99367324        0.015 
   31000    105.18831   -4019.6039    5.3453617   -3379.7956    292.91166   -151.63173    0.9943171       0.0155 
   32000    108.96884   -4021.4436    3.8671511   -3372.6887    297.72453   -241.70947   0.98859531        0.016 
   33000    112.79682    -3992.313    5.5747048   -3335.7078     300.5604    498.34771   0.98904449       0.0165 
   34000    116.50342   -4019.9104     4.169775   -3363.9219    300.92429   -566.44233   0.97049389        0.017 
   35000    120.10851   -3980.1747    4.3966666   -3313.3184     305.8369   -254.47569   0.96181128       0.0175 
   36000    123.34414   -3955.4062    4.0928217   -3312.4161     294.9589   -547.78428   0.97666681        0.018 
   37000    126.98773   -4029.8266    5.3028314   -3390.8668    292.53961   -414.99072   0.98991759       0.0185 
   38000     130.6632   -4022.1385    5.3281157    -3364.266    301.25935   -310.50348   0.97250159        0.019 
   39000    134.34238   -4042.3094     6.578766   -3377.6198    303.82916   -171.53998   0.97860061       0.0195 
   40000    137.58663   -3986.4769    4.1123608   -3322.5265    304.62658    383.83087   0.99383787         0.02 
   41000    141.36362   -4027.4684    4.5051618   -3369.2588    301.79489   -92.687647   0.97474073       0.0205 
   42000    145.11537   -4003.3317    2.9931832   -3337.6326    305.95058   -1053.7707   0.97143891        0.021 
   43000    148.94581   -3997.0913    4.5900713   -3337.4888    302.39873     108.1503    0.9695453       0.0215 
   44000    152.79788   -4015.1593     3.550875   -3372.9162    294.86422   -137.11515     1.003113        0.022 
   45000    156.52037   -3957.0401    3.3914445   -3313.9472    295.33016    418.13427   0.98085293       0.0225 
   46000    160.25658   -4020.7642    3.7175796   -3367.3305    299.95363    544.77064   0.99436083        0.023 
   47000    164.00488   -4018.8484    2.4055731   -3389.1954    289.58053   -1363.9109   0.97796034       0.0235 
   48000    167.80815   -3983.9518    1.5833662   -3365.4255    284.82324    1291.9029     1.001315        0.024 
   49000    171.52634   -4025.6152    3.8719158   -3410.6424    282.12615    602.72662    1.0071544       0.0245 
   50000    174.12573   -3983.0497    4.4021987   -3306.5377    310.29205   -610.59387   0.98573704        0.025 
   51000     177.7428   -4008.4734    2.4838602   -3303.5191    324.30863    257.75771   0.98306461       0.0255 
   52000    181.48587   -4003.3071    3.1577878   -3329.0897    309.80723    -147.1165    0.9813666        0.026 
   53000     185.2529   -4065.1012    3.9915463   -3438.9051    287.25239     384.9358    1.0015775       0.0265 
   54000    189.01708   -4040.9634    2.4001939   -3370.8371    308.26828    542.14722    1.0081298        0.027 
   55000    192.79998   -4035.9182    3.9926785   -3344.2086    317.49737    287.31165   0.99017811       0.0275 
   56000    196.56079   -4024.8591    3.7139401   -3364.7134    303.05402     -456.979   0.99424095        0.028 
   57000    200.32842   -4010.8355    4.7002139   -3350.3988    302.73303   -286.31538   0.98002115       0.0285 
   58000    204.06411   -3962.7243    4.1656253   -3282.8842    311.93775    661.21056    1.0044156        0.029 
   59000    207.88132   -4024.1732    4.3220256   -3373.3918    298.45006    80.101785     1.012141       0.0295 
   60000    211.65064   -3974.6464    5.6368103   -3317.0305    300.99835    1801.2648    0.9904831         0.03 
   61000     215.4321   -4011.1191    3.8275172   -3354.0753    301.56955   -794.20257   0.97563964       0.0305 
   62000    219.17188   -3997.5591    4.6927278   -3327.2812    307.27985    37.638525    0.9820382        0.031 
   63000    223.03616   -3999.2085    2.6204335   -3377.2332    285.93677    593.28062    1.0025895       0.0315 
   64000    226.79066   -4035.2122    4.5299781   -3387.5155    296.92996    851.41853    1.0020348        0.032 
   65000    230.57592   -3977.3321     3.901761   -3334.5243     294.9629   -25.700849   0.97274191       0.0325 
   66000    234.31121    -4012.544    7.5111702   -3330.4108     311.4519    1109.5917     1.001015        0.033 
   67000    238.05758    -3988.586    6.0356937   -3338.9959    297.10897    423.29122   0.98925112       0.0335 
   68000    241.77882   -3975.8833    4.0592153   -3330.8203    295.93142   -651.55157   0.97452046        0.034 
   69000    245.45822   -3993.6487    5.1224499   -3341.9945     298.4835   -1080.4028   0.97913233       0.0345 
   70000    249.07081    -3996.797     5.021824   -3345.7347    298.25666    50.054009   0.96382983        0.035 
   71000    252.80542   -3973.8677    5.4883974   -3322.5125    298.17648    -829.7963   0.97435796       0.0355 
   72000    256.57651   -4009.7017     5.835208   -3366.9354    294.05116     -103.718   0.99327154        0.036 
   73000    260.29427   -4004.0884    5.6705264    -3370.144    290.05438   -1021.1105   0.99701792       0.0365 
   74000    264.14518    -3947.454    7.2047901   -3288.1249    301.06537    496.41887    1.0048847        0.037 
   75000    267.95026   -3988.6031    4.1639642   -3320.9367    306.31831    229.33583   0.99763956       0.0375 
   76000    271.73745   -3921.2465    4.0604526   -3289.4906    289.78734   -819.87225   0.98074012        0.038 
   77000    275.44894   -3966.1665     5.217645   -3290.3832    309.57919   -249.07446   0.98918806       0.0385 
   78000    279.19605   -3953.0425    5.5327531   -3278.6484    308.79236    226.77157   0.99189207        0.039 
   79000    282.84643   -4017.7396    3.2836182   -3388.7159    288.88463    115.44883    1.0082387       0.0395 
   80000    286.53149    -3974.776    3.4994804   -3335.6627    293.44304    -130.3206   0.97217861         0.04 
   81000    290.23006   -3982.8017    10.123569   -3274.6001    322.28083   -1117.2194   0.97179732       0.0405 
   82000    293.65959   -3972.9959    8.1881334   -3353.4049    282.26558    489.81762   0.99732497        0.041 
   83000    295.99505   -3962.5015    8.3372495   -3299.6151    302.18489    142.14545   0.99547123       0.0415 
   84000    298.37256    -4011.906    7.7860259   -3374.8244    290.52609    -148.1724    1.0196685        0.042 
   85000    301.06007   -4008.6562    7.3389637   -3395.4621    279.70439   -595.42643   0.99386767       0.0425 
   86000    304.08287   -3978.8291    8.2313076   -3339.4347    291.38825   -325.80102    1.0025945        0.043 
   87000    307.82622   -4032.5322    9.1676851    -3342.588    314.29324    971.02291   0.99187233       0.0435 
   88000    310.81436   -3992.4223    8.8752249   -3353.7216    290.77069   -350.37204   0.98747744        0.044 
   89000      313.694   -3969.0189    8.3779908   -3320.2598    295.64394    446.37299    1.0086398       0.0445 
   90000    317.46637   -4009.0858    5.8923003   -3351.3623    300.93009   -440.81423   0.98426103        0.045 
   91000    320.66157   -3966.9284    5.5735017    -3290.697    309.62177   -720.47047   0.96657561       0.0455 
   92000    324.34631   -3985.3564    4.6519347   -3328.5872    301.06214    175.53383    0.9931494        0.046 
   93000    328.29291   -4035.0728    5.2655399   -3396.6648    292.30206    721.31106    1.0054828       0.0465 
   94000     332.2664   -3972.9493    7.6597612   -3329.2999    293.61656   -919.39648    1.0156417        0.047 
   95000    336.25071   -4020.1584    4.8240572    -3405.033    281.75705    687.01942   0.99861861       0.0475 
   96000    340.12479   -4031.1058    7.2567512   -3376.3229    298.94254   -409.58263     0.995252        0.048 
   97000    343.86542   -3995.2175     5.139844   -3310.4505    313.76259    1032.8857   0.98913094       0.0485 
   98000    347.62877   -3968.1089    3.2157066   -3315.0332    300.02005    420.41334   0.98887441        0.049 
   99000    351.65374   -3919.4257    4.5867036   -3252.2922    305.87713   -110.47522   0.97067744       0.0495 
  100000    355.46057   -4063.7736    4.6358591   -3370.9332     317.7225    483.48474   0.98881699         0.05 
  101000    358.89189   -4075.2681    4.7226581   -3392.5829    312.99412    338.00168   0.99356972       0.0505 
  102000    362.30622   -3988.0766    5.9557661   -3361.6715    286.44204    1727.3591    1.0157394        0.051 
  103000    365.77579   -3992.9751    5.2533701    -3322.395    307.16052   -153.54208   0.97880843       0.0515 
  104000    369.34215   -4037.8974    3.2088946   -3392.5651    296.44831   -1201.2067    0.9842143        0.052 
  105000    372.94114   -4003.3856    3.5549199   -3359.1572    295.77889   -2.4684287   0.99981919       0.0525 
  106000    376.44933   -3932.6227    4.2617139   -3277.2567    300.59451    1054.5704   0.98889213        0.053 
  107000    379.93001   -4044.2486    4.5523854   -3374.2247    307.22738    571.04835     1.007074       0.0535 
  108000    383.34995   -3991.7844    2.1403996   -3357.7224    291.73846   -516.59612   0.98533365        0.054 
  109000    386.81971   -3996.6939    3.8930323   -3352.5144    295.60024    709.56312    1.0011686       0.0545 
  110000    390.34807   -3982.3223    3.4033607   -3311.9274    307.92914    64.116383   0.99692205        0.055 
  111000    393.84103   -3931.7438    2.1224609   -3300.6261    290.38743    1709.0852   0.99651219       0.0555 
  112000    397.40523   -3994.5019    4.2767213   -3343.6213    298.51678   -8.3634986   0.98426498        0.056 
  113000    400.91867   -3965.5246    3.9699635   -3299.9305    305.45121    600.49992    1.0113488       0.0565 
  114000    404.45647   -3975.2078    3.5807123   -3312.9981    304.06842   -811.09628   0.98582139        0.057 
  115000    408.01747   -4035.8683    2.6866278   -3421.4836    282.40187    411.10423   0.99164721       0.0575 
  116000     411.3911   -4002.6007    6.1695443   -3343.2903    301.53468   -753.90747    0.9754699        0.058 
  117000    414.77492   -3973.4825    6.5216778   -3349.8506    284.90052    910.91272   0.98746418       0.0585 
  118000     418.0153    -3972.555    6.0563944   -3313.2665    301.57683   -174.49254   0.99068318        0.059 
  119000    421.54537   -3948.6903     4.089395   -3269.2008    311.81113    333.26892    1.0121605       0.0595 
  120000    424.91244   -4036.0541    5.6514502   -3398.7872    291.59712    455.80286    1.0025836         0.06 
  121000    428.73538   -3978.0451    3.6433139   -3320.5479    301.86391    1037.9669    0.9768199       0.0605 
  122000    432.54159   -3983.3935    5.2884343   -3347.6516    291.06065    286.44493   0.98704764        0.061 
  123000    436.42318   -4003.3747    4.5537076   -3317.6892    314.45721    181.90599   0.96025885       0.0615 
  124000    440.06258   -4002.6969     4.496703   -3367.9015    290.98917   -748.27107   0.96132245        0.062 
  125000    442.82813   -4032.3166    3.8530438   -3381.1491    298.84483   -106.57025   0.97833441       0.0625 
  126000    445.21425   -4017.0881    5.7368664   -3357.2946    301.95747    310.39877    1.0006458        0.063 
  127000    448.90444   -4008.5543    6.5740555   -3382.0206      286.216    323.02836   0.99601483       0.0635 
  128000    451.72472   -3998.4368    7.0926659   -3326.1716    307.08934    407.91538     1.011639        0.064 
  129000    454.14484   -3955.7086     5.247659    -3308.793    296.23801   -875.61077    0.9657699       0.0645 
  130000    458.07606   -4039.9315    3.4013064   -3370.6566    307.41303    84.886744   0.98842532        0.065 
  131000    462.21334   -3989.4566    6.0539376   -3342.0622    296.08685    632.58256   0.98141127       0.0655 
  132000    466.31383   -4008.7664    7.8986335   -3347.2177    301.76981   -1311.0985   0.98428956        0.066 
  133000     470.2204   -4021.9468    7.5034544   -3341.1021    310.86058   -488.08318   0.97190912       0.0665 
  134000    474.10046   -4006.1969    10.234425   -3343.4474    301.24583   -1369.1954   0.99976747        0.067 
  135000    477.97441   -3973.4711    7.0639143   -3327.8977    294.77988   -1284.1035   0.98882623       0.0675 
  136000    481.78758   -4022.7057    6.8679431   -3360.3349    302.62517    -669.2033   0.98579345        0.068 
  137000    485.66199   -3998.0202    8.0523239   -3324.4462    307.25057    210.28401   0.97261366       0.0685 
  138000    489.52952   -4006.2277    8.2231639   -3376.5632        286.9   -776.52588   0.98300736        0.069 
  139000    493.18327   -4039.2845    8.9642869   -3387.6348    296.70777   -220.56754   0.98844235       0.0695 
  140000    496.89297   -3991.9977    8.2228933   -3314.6677    308.90584    56.484804    0.9885566         0.07 
  141000    500.78399   -4041.3875    7.1715639   -3391.9242    296.52602    -1012.693   0.98707775       0.0705 
  142000    504.61837   -4000.0184    4.1025297     -3341.75    302.00793   -662.60471   0.99791335        0.071 
  143000    508.49622   -3982.8788    3.3801576   -3302.7469    312.43509   -1048.5649   0.98481681       0.0715 
  144000     512.3675   -3996.2905    5.6577618   -3332.8652     303.6707    334.19025   0.99809269        0.072 
  145000    516.14009   -4029.2987     4.510054   -3407.7272      284.878   -135.97164   0.99304303       0.0725 
  146000    519.97587   -4009.6033    7.4222268   -3355.0901    298.74169   -988.26734    0.9857478        0.073 
  147000    523.82653   -4060.1974    3.3744313    -3400.504    303.00197   -44.755956   0.99326189       0.0735 
  148000     527.6034   -3984.7246    6.7807238   -3329.3179    299.45033   -798.05677    0.9712008        0.074 
  149000    531.43656   -3995.8503    5.4154102   -3344.9921    297.98074    662.45313     0.991577       0.0745 
  150000    535.23503    -3966.062    8.1798284   -3314.9115    296.83944   -492.92391    0.9751681        0.075 
  151000    538.99308   -3991.3747    4.6322411   -3359.3272      289.658    -213.3165   0.96215461       0.0755 
  152000    542.81138   -4011.8139    6.6631211   -3341.7745     306.2601    1245.2658   0.99437836        0.076 
  153000    546.83675   -3987.3814    5.2544613   -3343.2442    294.95216    1610.5526   0.98565927       0.0765 
  154000    550.97456   -3970.9883     6.536377   -3281.1366     315.4653    1000.3703   0.99570403        0.077 
  155000    554.78655   -4020.2195    6.8649362   -3361.5194    300.93192    1357.9011    1.0107826       0.0775 
  156000    558.51124    -4000.448    5.7642203   -3384.3087    281.79111   -531.20965    1.0062937        0.078 
  157000    562.31743   -3983.3887    6.5306558   -3329.5631    298.83582    700.95535   0.98419953       0.0785 
  158000    566.09594   -3989.0763    7.2169004   -3348.0963    292.58865   -1070.1439   0.97194723        0.079 
  159000    569.99482   -4042.6598    8.6735738   -3402.2529    291.65151    710.19656   0.99508815       0.0795 
  160000    573.83509   -4054.9473     5.832569   -3406.6112    296.62377   -214.81855    0.9934703         0.08 
  161000    577.55849   -4012.6608    7.2461002   -3354.1054    300.68911   -1114.9313   0.97669702       0.0805 
  162000    581.11955   -4017.8995    6.2465072   -3334.6026      312.573     405.9397   0.97996121        0.081 
  163000    584.91937   -3987.6796    5.5030889   -3316.8544     307.1584   -389.58576   0.97672837       0.0815 
  164000    588.72151   -3978.7327    5.8977609   -3325.2689    298.96097   -405.39684   0.98106552        0.082 
  165000    592.46758   -4026.5593    4.5105705   -3392.9016    290.45752    1213.7984    0.9856054       0.0825 
  166000    596.13339   -4026.0389    5.1057006   -3351.5151    309.04941   -1340.3386   0.98822366        0.083 
  167000    599.79697   -3979.4738    4.7974163   -3316.6711    303.78046    861.75284    1.0230217       0.0835 
  168000     603.3588   -3998.1763    3.3068545    -3367.772    289.51129    388.91489   0.98452344        0.084 
  169000    607.10841   -4026.7062    2.1148521   -3383.4664    295.98735    660.04491   0.98382359       0.0845 
  170000    610.78997   -3964.7088    3.9105972   -3312.0261    299.51783    937.66791   0.97507395        0.085 
  171000    614.68188   -3934.3267    4.6031545   -3265.5302    306.63729    756.78933    1.0096618       0.0855 
  172000    618.51938   -3944.8443    3.0689887    -3283.177    304.05425     151.5869   0.97740021        0.086 
  173000    622.26805   -3994.7053    2.8398124   -3342.8217    299.64325    522.44385   0.98082579       0.0865 
  174000    626.09998   -3943.1571    5.8826459   -3247.3663    318.50901    351.11346   0.96683631        0.087 
  175000    629.97372   -3974.4591    6.5722391   -3347.4663    286.42881   -1225.8829   0.95695642       0.0875 
  176000    633.69004   -3978.6582    6.6597317   -3333.1611    294.93126   -175.89809   0.98684072        0.088 
  177000    637.46688   -3970.2071     8.697796   -3300.3203    305.25029    -654.5025   0.97618014       0.0885 
  178000    641.14625   -3980.4778    6.9192137   -3332.8661    295.78769    987.71739    1.0173968        0.089 
  179000    644.89961   -4007.0267    7.8030819    -3376.102    287.67573    693.31749    1.0024595       0.0895 
  180000    648.68312   -3933.7307    8.4153656   -3260.8341    306.77022    -607.0913   0.96610184         0.09 
  181000        652.5   -3930.5779    7.6596052   -3259.4145    306.31898   -1014.4476   0.99162923       0.0905 
  182000    656.33846   -3966.0268    7.2749366   -3313.8341    297.73837   -838.89142   0.98519856        0.091 
  183000    660.16313   -3969.1383    7.7536455   -3303.6674    303.64748   -278.45007   0.98805274       0.0915 
  184000    663.99547    -3988.602    7.4756046   -3320.8448    304.83137    74.191658    1.0169284        0.092 
  185000    667.82055   -4074.4691    7.0084683   -3420.2974    298.77499    401.27109    1.0196474       0.0925 
  186000    671.61944   -4004.0972    5.6029173   -3368.2682    290.95569    219.09468    1.0078448        0.093 
  187000    675.43687   -4027.3477    7.7841207   -3370.5755    299.61748    313.89013    0.9960981       0.0935 
  188000     679.2513   -4006.0616    6.4403752   -3337.7706    305.55574    120.84879    0.9799441        0.094 
  189000    683.06037   -4018.5603    7.6587598   -3364.4432    298.44962   -683.44595   0.96449303       0.0945 
  190000     686.8395   -4036.7155     6.630295   -3394.9874    293.20479     105.9543   0.98442297        0.095 
  191000    690.64572    -4016.041    4.2515382   -3357.7325    301.95766    394.83236   0.99240227       0.0955 
  192000    694.49399   -3990.0811    3.9772869   -3351.2759    293.08018     491.3638    0.9912247        0.096 
  193000    698.27663   -3987.4293    6.9131446   -3310.6927    309.23656   -1195.1919   0.97671972       0.0965 
  194000    701.96731   -4047.8411    7.3714922   -3379.2887    305.24655    60.456319   0.99172585        0.097 
  195000    705.85322   -3968.4464    5.3395553   -3325.0404    294.57533    650.96745    1.0033621       0.0975 
  196000    709.61722   -4003.7531    6.2567161   -3342.6238    302.33419     372.9178    1.0014711        0.098 
  197000    713.55016   -3972.0296    7.9295876   -3309.2495    302.32401    315.30463    1.0012942       0.0985 
  198000     717.3826   -4056.6794    2.8438737   -3414.8585     294.9957    1412.9099    1.0059443        0.099 
  199000    721.23568   -3964.7548    4.2343341   -3319.7268     295.8344    801.44591     1.009337       0.0995 
  200000    724.82642   -4050.4473    6.5902154   -3394.0892    299.97751    94.565891   0.99280626          0.1 
  201000    727.09507    -4033.078     5.182499   -3414.8384    283.02929    1141.1355    1.0048053       0.1005 
  202000    730.46322   -3982.6871    5.9419105   -3313.2189    306.32934     1077.061   0.98796839        0.101 
  203000    733.64353   -4018.8358    6.1342417    -3349.561    306.15127   -589.67075    1.0012676       0.1015 
  204000    736.94128   -3970.8072    8.7402757   -3285.3108    312.43712   -1450.7741   0.95212057        0.102 
  205000    740.21602   -4029.4912    6.2684378    -3390.453       292.13   -635.16776     0.968328       0.1025 
  206000    743.58661   -3984.6679     3.850164   -3318.2893    305.86865    799.62233   0.99596527        0.103 
  207000    746.84171    -4002.387      5.60898   -3339.7792    303.31582   -1311.7083   0.98928435       0.1035 
  208000    750.19668   -4012.2176    4.3924491    -3374.136    292.55448   -21.667341    0.9999898        0.104 
  209000     753.4068   -3996.5669    5.5695088   -3342.4578    299.41048    576.41288    1.0005616       0.1045 
  210000    756.72391   -3980.0548    5.4293818   -3318.3995      302.959   -1359.7153   0.97042061        0.105 
  211000    759.53055   -4047.7513    7.2498499    -3397.124    297.02724    638.02669    1.0038454       0.1055 
  212000    761.76291   -4013.3195    5.4620601   -3346.1442     305.4923    305.82955   0.97870416        0.106 
  213000    763.95206    -4038.799    5.8276854   -3400.7772    291.86422    1375.3276    1.0066519       0.1065 
  214000     767.1883   -4003.0122    6.6458518   -3349.8662    298.46889   -415.24026   0.98767858        0.107 
  215000    770.47323   -4004.7836     5.352904   -3363.5106    293.58439   -474.46825   0.98000346       0.1075 
  216000    773.74571   -3981.8556    5.6799894   -3316.0912    304.74033    693.74137    1.0062378        0.108 
  217000    777.01623    -3980.993     5.543367   -3330.9224    297.55808    437.51705   0.98311334       0.1085 
  218000    780.23504   -3962.0208    3.9430792   -3327.7848    290.98651   -497.23337   0.95874667        0.109 
  219000    783.54567   -3962.0181    5.3924832   -3342.7202    283.42091    307.11392   0.96985536       0.1095 
  220000    786.89273     -3988.95    5.8923562   -3316.3934    307.77806    1124.9306   0.97993995         0.11 
  221000    790.72086   -4017.8105    4.4964805   -3360.5398    301.36545    360.40197    0.9885646       0.1105 
  222000    794.56413   -4006.4854    7.1000138   -3372.9473    289.20688   -1005.2118   0.97358303        0.111 
  223000    798.43747   -3997.1649    4.2788696   -3343.8029    299.66141    450.50746   0.99676923       0.1115 
  224000    802.15191   -4009.8839    4.9083826   -3354.3998    300.35047     265.1524    1.0197574        0.112 
  225000    806.10632   -4021.3221    7.4054403   -3372.8753    295.94874   -709.21113    1.0034817       0.1125 
  226000    810.17848   -4053.9245    6.4276729   -3393.8656    301.76112    73.291585   0.99578534        0.113 
  227000    813.99732   -3996.4425    4.5827684   -3329.8686    305.62061    779.19413    1.0080041       0.1135 
  228000    817.77543   -4000.8987    5.9397041   -3361.3656    292.51026   -71.281164   0.99080314        0.114 
  229000    821.49796   -3984.9378      3.10372   -3327.0495    302.29354    145.94098   0.98797041       0.1145 
  230000    825.27859   -3952.6018    3.5732124   -3327.6227    286.88369   -113.99767   0.97884967        0.115 
  231000    829.21891   -4073.5425    4.0600059   -3389.2323    314.05024    389.34493    1.0102133       0.1155 
  232000    832.96905   -3985.8548    3.3772057    -3328.179    302.06919    993.49742    1.0081596        0.116 
  233000    836.87618   -4052.4724    4.3037884   -3401.4922     298.5503    6.7516578   0.98778654       0.1165 
  234000    840.79495   -3994.5301    3.4138695   -3358.2239    292.18661    257.13868   0.98940023        0.117 
  235000    844.69884   -3928.1897    5.3332505   -3313.9312    281.12173    72.241178   0.97892069       0.1175 
  236000    848.63619   -4007.1109    4.0319627   -3353.8168    299.74402    1059.2565   0.98352684        0.118 
  237000    852.56178    -3982.258    4.1582302   -3317.4408    305.00557   -280.80643   0.99515916       0.1185 
  238000    856.45964   -4034.7319    3.2114255   -3388.4068    296.90549    520.52392     0.998973        0.119 
  239000    860.48625   -4015.0194    4.6515468   -3389.4086    286.67746   -510.27442    0.9750928       0.1195 
  240000    864.40075   -4005.2811    2.8738529   -3368.0734    292.85211    -475.8997    1.0055276         0.12 
  241000     868.3753   -3958.8128    6.4201993   -3312.1589    295.57592    59.959389   0.99514512       0.1205 
  242000    872.22874   -3967.9625    6.5853569   -3320.0408    296.08494   -367.70986   0.97457723        0.121 
  243000    876.19751   -4008.0777    10.152184   -3347.2962    300.37521    499.16606   0.99744253       0.1215 
  244000    880.06981   -4029.6909    7.9471197   -3311.1113    328.07683   -255.57398    1.0008236        0.122 
  245000    883.97641   -4013.1917    8.4187338   -3341.1164    306.38949    840.21436    1.0092353       0.1225 
  246000    887.79126   -4009.1246    5.4344773   -3356.4358     298.8171   -670.56713   0.98573237        0.123 
  247000    891.69991   -4048.7047     8.280868    -3408.419    291.77689    -402.1288    1.0085401       0.1235 
  248000    895.64624   -4013.0482    4.9360715   -3323.2568    316.17633    620.44793   0.99544433        0.124 
  249000    899.51688    -4016.888    5.2901097   -3349.4427    305.69634    268.92393   0.99205382       0.1245 
  250000    903.33354   -3976.2347    6.5397007   -3309.3593    304.85631    453.82156   0.99446384        0.125 
  251000    907.13113   -4001.0964      8.20791   -3361.5636      291.463   -2039.8757   0.96378889       0.1255 
  252000    910.96629   -3966.4137    6.3105839   -3335.7629    288.23836    681.51345   0.99214092        0.126 
  253000    914.70245   -4043.4451    5.7259995   -3432.9541    279.20108    1570.6855   0.99758687       0.1265 
  254000    918.58729   -4003.7307    3.1567671   -3338.9099    305.46959   -415.78198   0.98035792        0.127 
  255000    922.25709   -3990.2158     4.346916   -3310.6803    311.71348     769.8732    1.0026157       0.1275 
  256000    926.02872   -3986.0805    4.4905141    -3313.085    308.62783    206.44364   0.99503073        0.128 
  257000    929.70499    -3971.409     7.054712    -3278.582    316.59963   -856.93959    0.9866836       0.1285 
  258000    933.41368   -3968.0451    7.5584102   -3323.7875    293.94406    326.22488   0.99101795        0.129 
  259000    937.20262   -4024.9861    6.5340515   -3382.3667    293.66074    744.12817   0.98410794       0.1295 
  260000    941.04305   -3959.3895    9.3651708   -3280.8798    308.92313    405.03298   0.98829152         0.13 
  261000    944.90737   -3998.6207    7.0820743   -3325.5733    307.45536    175.22295    1.0000374       0.1305 
  262000    948.77514   -4019.5743    7.9943587   -3334.7623    312.46552    1172.8568    1.0020718        0.131 
  263000    952.55893   -4035.7829    9.8185748   -3361.8165    306.61624    1193.2023    1.0010604       0.1315 
  264000    956.34735   -3995.9547    9.2467966   -3337.0811    299.91239      139.386   0.97713508        0.132 
  265000    959.97138   -4040.1059    5.8063174   -3403.7116    291.12274   -63.967446   0.96808859       0.1325 
  266000    962.81481   -3967.6751    4.9125273   -3333.7079    290.41488   -405.09487   0.98385733        0.133 
  267000    966.37043   -4036.4451    7.1702868   -3387.8767    296.11343   -982.43199   0.98632715       0.1335 
  268000    969.81937   -4028.1194    5.6166609   -3363.5158    304.23367   -580.02114   0.98690762        0.134 
  269000    973.38806   -4063.2294    7.2905716   -3429.9676    288.99136    384.48836   0.99518955       0.1345 
  270000    976.80897   -4027.0033    7.4010084   -3375.8508    297.19991   -1283.7948    0.9837154        0.135 
  271000    979.92352   -4009.6787     5.680764   -3335.6116    308.57307   -703.35752   0.97771018       0.1355 
  272000    982.96605   -3972.3922    7.2010493   -3282.9409     314.9736   -385.32737    0.9886344        0.136 
  273000    986.81407   -3944.7309    4.0780217   -3284.9109     302.7356    -222.7726   0.98074526       0.1365 
  274000    990.70404   -4019.4538    5.0860493   -3352.2125    305.69638   -242.32938   0.97908101        0.137 
  275000      994.522   -4042.5866    6.3382407   -3396.1369    295.51946    -299.2999    0.9809371       0.1375 
  276000    998.39216   -4002.5936    5.6351158   -3310.7993    316.77822   -325.79717   0.96166057        0.138 
  277000    1002.1161   -3980.8349    4.5037821   -3317.6392    304.09746    1056.8261   0.97127873       0.1385 
  278000    1005.9092   -3979.2256    6.4704085   -3337.0167    293.50057    188.76684    0.9919513        0.139 
  279000    1009.7543   -3950.2993    6.0809643   -3320.8938    287.76947    1089.5521   0.99818625       0.1395 
  280000    1013.2278   -3962.6318    6.0741504   -3310.4968    298.26609   -971.20321   0.96622086         0.14 
  281000    1015.5607   -3995.5988    4.7197388    -3371.185    286.09337    182.58876   0.98467271       0.1405 
  282000    1017.9602   -4050.9358    4.6728129   -3412.1041    292.77132   -32.840829    1.0031053        0.141 
  283000    1021.1267   -4009.9063    4.9910977   -3345.8468    304.27128    358.02445   0.99556009       0.1415 
  284000    1024.8093   -4038.3846    4.9967748   -3406.9906    289.18801    152.72129    0.9812303        0.142 
  285000    1027.8711   -4001.7255    2.9172224   -3322.9946    312.00203   -744.55667   0.96736185       0.1425 
  286000    1031.6122   -3977.9964    4.1193249   -3344.9641    290.34944   -826.15263    0.9906643        0.143 
  287000    1035.3807   -3992.8763    4.3310985   -3370.9412    285.12845    514.36698   0.99501526       0.1435 
  288000    1039.1544   -4013.3871    2.6026986   -3383.0497     289.8055   -567.94457   0.99484567        0.144 
  289000    1042.8963   -4031.5898    5.8448451   -3394.7422    291.31427     365.6199    1.0067779       0.1445 
  290000    1046.8237   -3971.4458    3.8786119   -3327.2718     295.6044   -153.89201    1.0040732        0.145 
  291000    1050.4676   -4030.3165    4.2551395   -3383.4806    296.65944    -310.3012   0.99185409       0.1455 
  292000    1054.2275   -3996.9861    3.3658398   -3340.4268      301.559    220.99019    1.0124078        0.146 
  293000    1058.0754   -4063.0057    4.3112903   -3386.3615    310.39505   -106.59349    1.0005137       0.1465 
  294000    1061.8723   -3985.3626    2.9402209   -3300.4039    314.86658    675.93448   0.99138819        0.147 
  295000    1065.6771   -3993.0766    4.5824792   -3347.2375    296.04811    659.31523   0.98981418       0.1475 
  296000    1069.5079   -3962.0419    3.4486942   -3294.5455    306.57004    264.80863   0.99049656        0.148 
  297000    1073.4535   -3990.1582    4.6636249   -3310.2726    311.72885    323.62041    0.9885518       0.1485 
  298000    1077.3771   -3979.3146     4.129833   -3335.5019    295.32157   -265.36453    1.0033563        0.149 
  299000    1081.2573   -4007.0481    3.2615266    -3338.052    307.34886    1649.3889    1.0107322       0.1495 
  300000    1085.0911   -4002.0829    5.2585336   -3342.9442    301.87602   -697.82814   0.98786045         0.15 
  301000    1088.5403   -3961.9799    6.7825377   -3296.8187    303.95286   -1171.3927   0.98677232       0.1505 
  302000      1092.02   -3973.2472    4.5831359   -3338.2357    291.04906      156.075    1.0066496        0.151 
  303000    1095.6263   -3995.2018    5.9691686   -3355.0883    292.76462    28.729121   0.98740649       0.1515 
  304000    1099.1267   -4032.1659    6.7163396   -3366.4958    304.21838    328.79214    1.0043888        0.152 
  305000     1102.636   -4026.6207    5.7322241   -3409.2384    282.37972   -766.12181    1.0006362       0.1525 
  306000    1106.2046   -4026.2377    6.0818681    -3395.559    288.35686   -594.36272   0.98359994        0.153 
  307000    1109.7008   -4025.9191    7.8672625   -3374.4314    297.13945    402.46592   0.98461341       0.1535 
  308000    1113.2134   -4019.0174    7.3336547   -3388.2855    287.80346   -254.02493   0.99383029        0.154 
  309000      1116.77   -4010.9822    6.4488725     -3357.38    298.77047    434.19883    1.0090891       0.1545 
  310000    1120.4947   -3969.2867    3.0717831   -3318.3668    299.09121   -679.96545    1.0047608        0.155 
  311000    1124.1045   -4026.0553    3.8337387   -3356.9405    307.13949     -1002.26   0.97173637       0.1555 
  312000     1127.601   -4058.8979    5.2562261   -3406.4246    298.79989    256.93896   0.98232702        0.156 
  313000    1131.1007   -4046.2018    6.3559369   -3388.1197    300.88158   -1374.3634   0.95980231       0.1565 
  314000    1134.4937   -4022.7367     5.993885   -3365.2549    300.77161   -361.08109   0.99335168        0.157 
  315000    1137.9803   -4007.0313     6.781405   -3326.7272    310.94434   -1181.2289   0.96800138       0.1575 
  316000    1141.5104    -3981.604    5.0469186   -3312.9596    306.36224     585.3952   0.99457985        0.158 
  317000    1144.8962   -3990.5523     5.197265   -3351.8769    292.45705   -92.620792   0.97672556       0.1585 
  318000    1148.2524   -3962.6032    4.9872233   -3314.4291    296.93929    490.02734   0.99970256        0.159 
  319000    1151.5169   -3982.6035    6.4883107   -3328.9432    298.77909   -256.26646   0.97208039       0.1595 
  320000    1154.8607   -3972.7359    4.7975472   -3257.7142    327.88826    174.27505   0.97527112         0.16 
  321000    1158.3136   -3978.8533    5.2352119   -3323.1102    300.31912    604.01015   0.98181167       0.1605 
  322000    1161.8112   -3952.7725    6.8707117   -3313.2768    292.06319   -11.299345   0.97112002        0.161 
  323000    1164.4328    -4003.554    6.8627805   -3330.8281    307.40814    1653.3999    1.0235266       0.1615 
  324000    1168.1505   -3987.6232     6.043778   -3350.6252    291.29187   -452.77699   0.98489487        0.162 
  325000    1171.6861   -4017.3913    5.7372952   -3349.7753    305.56869   -63.465257   0.99079624       0.1625 
  326000     1175.109   -3968.0144    6.7793025   -3285.8266      311.815    260.43913   0.96983456        0.163 
  327000    1178.2873   -3975.9687    4.5538086   -3278.5129    319.89119   -1076.7298   0.98340029       0.1635 
  328000    1181.9629   -3971.9755    6.1100991    -3317.767    299.20676    28.398375   0.97209043        0.164 
  329000    1185.8093   -4019.5212    5.2888807   -3343.2039    309.79284    185.12393   0.98806192       0.1645 
  330000     1189.659   -3992.2135    4.3219352   -3315.6829    310.33772   -1284.6786   0.97999829        0.165 
  331000    1193.1232   -4002.2885    4.8334988   -3303.0071    320.60487    582.16894   0.99775922       0.1655 
  332000    1196.2514    -4034.333    3.6734131   -3391.7871    294.94742   -292.59066    0.9895007        0.166 
  333000    1198.7065   -4024.9246     3.279302   -3369.2288    301.20029    139.28208     1.004528       0.1665 
  334000    1202.3014   -4020.4334     3.097056   -3376.8019    295.71472   -276.76299   0.99419157        0.167 
  335000     1205.107   -4051.0539    4.3382547   -3392.4521      302.053    397.18341   0.99200739       0.1675 
  336000    1207.5612    -4050.881    3.0982469   -3393.2188     302.1917   -901.37737   0.96985094        0.168 
  337000    1210.3875   -3992.1809    2.8279316   -3331.6859    303.62432   -1113.5174   0.98033859       0.1685 
  338000    1213.9555   -3985.1031    5.5218083   -3334.3597    297.87865    118.70868   0.99143718        0.169 
  339000    1217.5956   -3988.9633    4.6664821   -3336.0441    299.27802   -380.84821   0.97578795       0.1695 
  340000    1221.4025   -4021.4103     4.104046   -3393.6691    287.91377     194.5928   0.99842772         0.17 
  341000    1225.2701   -4004.5682    6.2843727   -3345.1929    301.51169    207.16142    1.0074499       0.1705 
  342000    1229.0556    -3961.209    2.8392339   -3299.7133    304.08107     114.8465   0.98429605        0.171 
  343000    1232.6646   -3972.9801    3.2709958   -3320.9006    299.53463     925.0345   0.99811049       0.1715 
  344000    1236.3837   -3962.5691    4.2807704   -3318.6024    295.32299   -428.45531   0.98169457        0.172 
  345000    1239.9555   -3994.0424    4.8114659   -3347.8561    296.10272   -494.94814   0.96958179       0.1725 
  346000    1243.7525   -3953.6418    4.7007986   -3307.0774    296.32832    310.79144   0.96629635        0.173 
  347000    1247.6536   -4034.3497    3.5720469   -3403.0004    289.82514    1438.5594    1.0225534       0.1735 
  348000     1251.456   -4025.8671    5.8772673    -3388.846    291.37933   -808.58977   0.99296511        0.174 
  349000    1255.3239   -4064.3193      4.40467   -3395.6516    306.66947   -209.77077   0.99761558       0.1745 
  350000    1259.2654   -4013.1812    5.7857569   -3388.5908    285.68275    603.97371    1.0038614        0.175 
  351000    1263.1002   -3997.5528    4.2127386   -3331.5338    305.53526   -1373.6115   0.97983242       0.1755 
  352000    1266.9159   -3997.3034    4.2858278   -3347.7739    297.88886   -862.31699   0.98696671        0.176 
  353000    1270.7982   -4027.1004    8.5933429   -3392.3998    289.05416   -150.69453   0.98356954       0.1765 
  354000    1274.5971   -3998.8768    6.1794735   -3361.5947    291.36037    119.76083   0.97062796        0.177 
  355000    1278.4393   -3966.2023    6.0386643   -3348.3655    282.44805    1274.8872   0.98490534       0.1775 
  356000    1282.3555   -4064.1375    8.8532871   -3396.5445    304.11951   -561.12739    1.0020237        0.178 
  357000    1286.2828   -4073.7148    5.4781805   -3439.3753    290.32559    435.39139    1.0154999       0.1785 
  358000    1290.2048    -3986.852    5.4396915   -3307.7668    311.00103    -37.54877   0.99875375        0.179 
  359000    1294.1449    -3997.335     8.885056   -3335.9842    301.22303   -1290.4636    0.9847694       0.1795 
  360000    1298.0295   -3985.4078    5.0409979    -3312.982    308.11071    1360.9633    0.9945406         0.18 
  361000     1301.861   -4077.7413    8.2178899   -3412.1597    303.48427    691.30993    1.0014888       0.1805 
  362000    1305.6602   -4016.6589    8.7681787   -3345.5746    305.77065    83.323437   0.98187614        0.181 
  363000    1309.3211   -3975.6249    9.1963764   -3346.4005    286.24753   -755.50514   0.96676568       0.1815 
  364000    1313.2368   -4009.5692    5.4739866   -3325.1939     313.4275    1364.0649    1.0083069        0.182 
  365000     1317.095   -4006.2008    7.8428261   -3367.3879    291.29913    533.59233    1.0009851       0.1825 
  366000    1321.0331   -4025.8807    5.4112213   -3386.5018    292.68306    565.30108    1.0166736        0.183 
  367000    1325.0466   -3998.4973    5.0546059    -3371.784    287.00036   -780.20511    0.9897348       0.1835 
  368000    1328.8472   -4014.9944    9.1974269   -3371.3874    292.88703   -117.71177   0.99467738        0.184 
  369000    1332.7402   -3991.3727    10.571113   -3360.9652    286.15907   -205.11041   0.97580551       0.1845 
  370000    1336.6264   -4016.1872    8.1305029   -3371.4074    293.92107   -360.02528   0.95738258        0.185 
  371000    1340.5081   -4011.2097     9.327008   -3343.6466    303.88702    177.45661   0.96597007       0.1855 
  372000    1344.3606   -4044.1236    8.5495613   -3392.9226    296.69211   -153.87292   0.98204092        0.186 
  373000    1348.1974   -4013.3213    11.441568   -3353.9999    299.10584   -912.05552   0.97767048       0.1865 
  374000    1350.9784   -4020.0993    13.267764   -3341.3985    307.20961   -85.455542   0.98444459        0.187 
  375000    1353.3284   -4037.9124    9.0928579   -3410.7682      285.335    862.76993    1.0077123       0.1875 
  376000     1356.957   -4081.6964     5.903087   -3379.0103    321.68291   -440.06909   0.99637204        0.188 
  377000    1360.5806   -4052.2353     10.03439   -3396.7158    298.00027   -477.95459   0.98594931       0.1885 
  378000      1364.22   -3972.0519    8.7268253   -3316.8798    298.44355   -87.583141   0.99247986        0.189 
  379000    1367.8152   -4003.9114    7.6158492   -3370.5258    288.89832     77.16851   0.98557113       0.1895 
  380000    1370.9284    -4007.078    5.6632257   -3353.4695    299.13609   -952.58772   0.98416467         0.19 
  381000    1373.7231   -4024.9041    6.0660976   -3347.5111    309.93063    118.38962   0.99715053       0.1905 
  382000    1376.1622   -4016.9857    7.1524425   -3379.4534    291.02664    862.53158   0.99347157        0.191 
  383000     1379.717   -3959.2625    4.4671357   -3314.2934    295.69973    232.98137   0.98671698       0.1915 
  384000    1383.2294   -4040.2936    5.6212715   -3405.0491    290.67736    44.322891    1.0017513        0.192 
  385000    1386.5807   -3993.9284    6.1348126   -3359.4215    290.09975    671.06017   0.98588565       0.1925 
  386000    1390.4372   -4002.8509    5.4316994   -3327.1664    309.43474   -183.74884   0.98907038        0.193 
  387000    1394.3818   -4032.8713    7.4969725   -3392.9007    291.99331    182.92737    1.0047547       0.1935 
  388000    1398.2564   -3994.1591    8.9516879   -3343.3253    296.33689   -57.388334   0.98723854        0.194 
  389000    1402.0064   -3993.0621    7.7541788     -3358.38    289.43302   -357.33722    0.9753809       0.1945 
  390000     1405.833   -3976.3549    5.5722728   -3297.0691    311.03249    24.538352    0.9867427        0.195 
  391000    1409.6225   -3975.7407    6.5515047   -3312.2958    303.26718   -80.055546   0.98801766       0.1955 
  392000    1413.3801   -3995.1478    3.6526582   -3306.0156    316.46448   -552.19511   0.99673744        0.196 
  393000    1417.1654   -4016.1337    7.1164842   -3361.7353    298.82979    1423.5046   0.98811112       0.1965 
  394000    1420.9274   -3967.2158    5.9526505   -3289.3985    310.17887    366.72103   0.98765811        0.197 
  395000    1424.6648   -4004.9373    5.4733501    -3314.612    316.17473    120.12221   0.99133607       0.1975 
  396000    1428.4491   -4014.6995    4.1483108   -3361.2536    299.76041   -677.88684   0.99480835        0.198 
  397000    1432.2377   -4047.5349    4.9570914   -3390.9074    300.85584    584.35856    1.0003145       0.1985 
  398000    1435.8179   -3986.2234     4.229442    -3339.331    296.69737    559.38089    1.0013697        0.199 
  399000    1439.0735   -4022.5982    6.5945737    -3369.859    298.30475    42.096175    1.0009577       0.1995 
  400000    1441.8593     -4020.94    6.1326076    -3371.482    297.00322    -858.0608   0.98907643          0.2 
  401000    1445.3436   -3960.0349     7.343795   -3327.5375    288.61387   -52.174082   0.99306463       0.2005 
  402000    1448.8046   -3993.7974     4.416571    -3335.166    302.03055   -205.91609   0.99389027        0.201 
  403000    1452.0593   -3998.0935    7.9101103   -3363.6228    289.26344    314.91368   0.98048933       0.2015 
  404000    1455.4138   -3936.2718    5.8810818   -3271.3887    304.24062   -1251.7062   0.95294087        0.202 
  405000    1458.8131   -3945.6718    4.4329503   -3280.2918    305.13858   -355.59486   0.98221616       0.2025 
  406000    1462.2333    -3972.148    5.5279208   -3308.7211    303.73139       863.17   0.99579703        0.203 
  407000    1465.6726   -4020.3878    7.8617964   -3360.9751    300.80067   -257.58367    1.0046566       0.2035 
  408000    1469.1892   -4044.9144    7.4495558   -3356.0001    314.61095    766.78746    1.0142375        0.204 
  409000    1472.6196   -3991.8903    7.5954338   -3324.8399    304.44971   -1127.6632    0.9783711       0.2045 
  410000    1476.0071   -4021.1811    5.7874006   -3388.3929    289.46665    486.38315   0.98346392        0.205 
  411000    1478.1547   -4018.0701    8.6424923   -3321.5759    317.55966    432.49848   0.98491562       0.2055 
  412000    1481.5325   -3976.4861    9.7806331   -3307.0399    304.54694   -401.52569   0.97861851        0.206 
  413000    1484.9364   -3975.9693    8.6779569    -3286.661    314.22575    123.00035   0.98457433       0.2065 
  414000    1488.4642   -4011.3106    6.7125962   -3342.9141    305.47877    556.79823   0.99990993        0.207 
  415000    1492.0137   -3995.9188    7.1676847   -3294.9568    320.30313    712.91398   0.98897585       0.2075 
  416000    1495.5798   -4009.2239    6.1581181    -3366.618    293.82804    917.47639    1.0063968        0.208 
  417000    1499.0459   -4049.5055    6.1881587    -3395.839    298.92047    -1669.326   0.98175577       0.2085 
  418000    1502.5173   -3911.9638    6.1174753    -3258.262    298.96944   -408.45788     0.976223        0.209 
  419000    1505.9879    -4028.992    7.1527084   -3354.3919    308.13956   -634.71009   0.98083376       0.2095 
  420000    1509.4253   -4052.4317     6.349119   -3400.4624    298.06265     662.4137   0.97669365         0.21 
  421000    1513.2455   -3997.1313    3.5608627   -3300.9509    319.76078    585.48476   0.98524407       0.2105 
  422000    1516.8491    -3968.271    4.1777965   -3333.8718    290.95351    166.28367    1.0010037        0.211 
  423000    1520.5182    -4013.383    2.8353042   -3352.9235    303.60452     545.5317     1.001804       0.2115 
  424000    1524.2851    -3966.848    3.6623965   -3309.0363    302.00026   -183.85222   0.98159549        0.212 
  425000     1528.099   -4014.1818    2.8377813    -3403.386    280.67521    1251.4342   0.99380824       0.2125 
  426000    1531.9233   -3998.2812    6.1287018   -3333.1359    304.24736   -204.78397   0.98115716        0.213 
  427000    1535.6981   -4052.9277    2.9812284   -3390.6221    304.38945    503.42255   0.98518327       0.2135 
  428000    1539.5971   -3981.9741    5.6509685   -3296.8013      313.714   -62.730765   0.97512764        0.214 
  429000    1543.5252   -4005.9786     3.933674   -3344.9887    303.34228    231.93147   0.98945804       0.2145 
  430000    1547.2821   -3965.9915     6.208779   -3306.8896    301.42037    637.23604   0.98195997        0.215 
  431000    1551.2332   -4016.5218    8.8436799   -3349.1072    304.04158   -289.34921    1.0069778       0.2155 
  432000    1555.1568   -3968.9036    8.2078918   -3310.7515    300.05892    554.35056   0.99623346        0.216 
  433000    1559.1016   -4026.3666    8.4856108   -3369.7686    299.21321    687.09653   0.99490004       0.2165 
  434000    1563.1024   -4015.2299    7.4733272   -3351.5174    302.96509    511.97536   0.99297356        0.217 
  435000    1566.5262   -3976.1175    7.8289002   -3326.2027    296.43097   -307.83506   0.98097238       0.2175 
  436000    1569.9825   -4051.2097    6.1932428   -3395.7176    299.76099   -118.82437   0.97674688        0.218 
  437000    1573.5838   -4021.8656    4.9571385   -3351.4375     307.2271    238.89356   0.99245283       0.2185 
  438000    1577.1634   -4038.1877    8.2737465   -3367.8099    305.67275   -963.43775   0.97165216        0.219 
  439000    1581.0229   -4036.9752    7.6964624   -3396.8096    291.99124   -1303.4539   0.98839027       0.2195 
  440000     1584.953   -4045.8628    5.9139931   -3365.8193    311.22451   -1232.4854   0.97384606         0.22 
  441000    1588.7308   -4011.3303     5.302818   -3343.5322    305.85336    259.63655   0.97954672       0.2205 
  442000    1592.5072   -4021.4718    6.6431275   -3358.3771    303.06317    -85.01529   0.97371173        0.221 
  443000    1596.3522   -4055.1008     5.829038    -3393.943    302.54482   -96.364184   0.97959623       0.2215 
  444000    1600.2467    -4032.025    4.8928875   -3381.3883    298.11974   -164.31603   0.98013715        0.222 
  445000    1603.9311   -4010.7846    2.7396261   -3354.3988      301.768    920.70383   0.98597416       0.2225 
  446000    1607.6725   -3997.0809    4.1366028   -3347.7902     297.8475   -1126.7401   0.96472678        0.223 
  447000    1611.4837   -4002.3931     6.781977   -3339.0919    303.09439   -926.84695   0.98034167       0.2235 
  448000    1615.3388   -3962.0935    4.4584989   -3307.9823    299.92434      -501.96   0.97126485        0.224 
  449000    1619.0867   -3978.7541    8.0735363   -3307.5743    306.13545    -1064.014   0.97849399       0.2245 
  450000    1622.9122    -4004.025    5.8705568    -3360.817    294.23874    175.71017   0.98383192        0.225 
  451000     1626.689   -3957.9778    6.9055071   -3304.0332     298.7177   -431.94028   0.97595697       0.2255 
  452000    1630.5461   -4031.6827    4.7973808   -3349.4897    312.73239   -65.404523    1.0040278        0.226 
  453000    1634.4869   -4035.0234    6.0682979   -3333.7605    320.94964   -590.55308   0.99637786       0.2265 
  454000    1638.4726   -4020.0011    9.3639612   -3369.5941    295.94951    654.69047     1.002027        0.227 
  455000    1642.4934   -4020.1373    7.0071411   -3339.7826    310.86355      692.175    1.0218652       0.2275 
  456000    1646.3908   -4011.9934    5.7967248   -3358.7083    298.92513   -907.56342   0.99815796        0.228 
  457000    1650.2482   -4019.3719    7.9015591   -3388.9258    287.40932     903.7628    1.0170215       0.2285 
  458000    1654.0994   -3977.6433    7.7232124   -3271.0174    322.66152    -627.9854   0.97480338        0.229 
  459000     1657.885   -3968.2903     5.615459   -3311.9726    300.40889    1356.7609   0.98102032       0.2295 
  460000    1661.7685   -3978.9654    10.182684    -3284.611    315.86066    635.08749   0.99687403         0.23 
  461000    1665.5717   -3986.6211    7.9430524   -3323.8655    302.30646   -476.20009    0.9727487       0.2305 
  462000    1669.2855   -3956.4588    9.1053355   -3312.3951    293.14042     1356.286    1.0083167        0.231 
  463000    1672.9753   -4014.1742    8.3809067   -3341.6998    306.59119    2576.0187    1.0179078       0.2315 
  464000    1676.8078   -4033.7203    5.9156461   -3367.4549    304.86285    96.126532   0.98214704        0.232 
  465000    1680.6608   -4000.4085    12.658235   -3306.9665    314.29657   -913.33885   0.97570814       0.2325 
  466000    1684.4688   -4019.1581    8.0656406   -3372.2418    294.93735      534.261    1.0015729        0.233 
  467000    1688.3514   -3981.2289    6.3829173   -3287.0982    317.51162    1298.0167   0.99038888       0.2335 
  468000    1692.2766   -4004.7923    5.3657094   -3342.3729    303.34117    347.84721   0.99961997        0.234 
  469000    1696.1715   -4030.6688    5.7715121   -3389.5457    293.32194   -811.72012   0.98876943       0.2345 
  470000     1700.002   -4057.2304    5.2226967   -3400.9613    300.56775    244.84366    0.9840608        0.235 
  471000    1703.8024   -4022.5341     6.293194   -3379.4118    294.00412   -1179.9351   0.97345039       0.2355 
  472000      1707.64   -3976.1268    6.3600449   -3334.7561    293.16457     643.4454     1.017813        0.236 
  473000     1711.518   -3978.3031    4.0196878    -3302.019    310.36347    362.95727   0.99169378       0.2365 
  474000    1715.3365   -4006.9845    5.8757842   -3306.8103    320.53587      1137.27    1.0045091        0.237 
  475000    1719.1545   -4008.8297    5.7441437   -3341.3548     305.5004    833.21035    1.0128503       0.2375 
  476000    1722.8431   -4013.8658    3.8913904   -3349.5636    304.89099    888.29876   0.98975732        0.238 
  477000    1725.6251   -4015.9629    3.1091135   -3375.9453    294.04074    1020.0037   0.98319896       0.2385 
  478000    1727.9659   -4040.3348    5.5724759   -3382.7867    300.99672   -211.76137   0.99679894        0.239 
  479000    1731.4696   -3983.0201    5.6663955    -3354.544    287.53178    -70.27887    1.0053984       0.2395 
  480000    1735.2638   -3955.0712    5.5937024   -3304.1025     297.9495    33.667001     1.009119         0.24 
  481000    1739.0137   -3963.0413    5.2560536   -3307.9673    300.00064    211.28132    1.0043923       0.2405 
  482000    1742.8602   -4016.4896    9.6494788   -3344.7096    305.68494   -889.95236   0.98815192        0.241 
  483000    1746.6504   -3968.3819    8.0560472    -3325.117    293.25603    -706.1447    0.9644991       0.2415 
  484000    1750.5605   -4027.0124     4.412745   -3376.3071    298.37303     496.2834   0.97754758        0.242 
  485000    1754.3527   -3989.4357    5.9149842   -3341.3067     296.4901    895.92399    1.0035273       0.2425 
  486000    1758.1599   -4003.2322     6.803267   -3337.6756     304.1258    485.92212   0.99943149        0.243 
  487000    1761.9966   -4091.5987    6.3219071   -3422.2945    306.07816    445.56678   0.98788288       0.2435 
  488000    1765.7767   -4022.4787    5.3420839   -3347.9981    308.92035   -152.37942   0.97886221        0.244 
  489000    1769.5507   -3978.1474    8.3122592   -3340.8438    290.38566   -316.35765   0.95877777       0.2445 
  490000    1773.2901   -4006.6405    4.1059865   -3348.0305    302.16404   -560.25518   0.96228237        0.245 
  491000    1776.4324   -3989.9642    5.0453459   -3323.7584     305.2371    194.89477   0.98703528       0.2455 
  492000    1780.0892   -3983.5464    5.4150153   -3342.8551    293.28722   -206.13175    0.9650599        0.246 
  493000    1783.4179   -3967.4018    4.0304054   -3319.9309    297.05636   -884.20725   0.97202623       0.2465 
  494000    1786.7251   -4061.0728    5.7451716   -3412.7782    296.64498   -956.06491    1.0111951        0.247 
  495000    1790.3733   -4011.7988    4.7392521   -3351.4739    302.66341    1071.5791    1.0050613       0.2475 
  496000    1793.9015   -3992.9725    8.1934623   -3326.9811    303.68475    1561.0834    1.0077177        0.248 
  497000    1797.7109   -3960.7945    5.5046135   -3317.8349    294.29307   -360.34691   0.99600148       0.2485 
  498000    1801.4924   -3945.0239    3.4981341     -3282.54    304.23311    1642.1429   0.99573487        0.249 
  499000    1805.2589   -4040.2219    6.7953274   -3377.8261    302.67023   -60.192544   0.99923968       0.2495 
  500000     1809.121   -3999.7189    6.3575332   -3347.4288    298.20688   -321.31581   0.98195499         0.25 
  501000    1812.6033   -3961.9563    7.0494927   -3300.3797     302.1747   -313.31184   0.98008275       0.2505 
  502000    1815.9139   -4004.4033    5.4410525   -3362.4321    293.86606   -678.58592   0.97680196        0.251 
  503000    1819.1709   -3978.2217    5.2387976   -3317.5489    302.59335     649.9554   0.96912416       0.2515 
  504000    1821.8331   -4030.0346     5.361965   -3386.4148    294.66367    255.82822    0.9836841        0.252 
  505000    1825.2654   -3974.4715    5.0638769   -3285.7397    315.62812   -189.25688   0.98047772       0.2525 
  506000    1828.7085   -4048.6986    5.3424695   -3343.3835    323.15549    237.30075   0.98656089        0.253 
  507000    1832.1426   -3967.8256    3.4382234   -3353.3011    282.11941    380.88309   0.98965454       0.2535 
  508000    1835.6141   -4039.4213    7.7979267   -3389.9856    296.22408   -881.19616   0.98402732        0.254 
  509000    1839.0335   -3992.3285    6.4444863   -3326.4456    304.44208    882.70702   0.99354165       0.2545 
  510000     1842.486   -3944.0894    11.224317   -3281.0488    300.92319    506.82742   0.97987659        0.255 
  511000    1845.9548   -4010.8086    9.8275904   -3340.8791    304.74841    339.93664   0.98239443       0.2555 
  512000    1849.3815   -4046.2203    5.5953665   -3414.4519    289.08449    1131.3493   0.99335769        0.256 
  513000    1852.8685   -4017.5555      8.66607   -3380.0185    290.33004     602.8676    1.0206708       0.2565 
  514000     1856.319   -3965.1678     4.945058   -3314.5937    298.06677    200.43682   0.99559447        0.257 
  515000    1859.7782   -4005.9617    4.5160358   -3344.1511    303.45232    12.352027    1.0015354       0.2575 
  516000     1863.212   -4005.6905    4.7526582   -3362.6106    294.69573   -103.29806   0.96793355        0.258 
  517000    1866.6188   -4015.7563    5.0166567   -3369.3061    296.12983   -116.70984    0.9897493       0.2585 
  518000    1870.0848   -4016.2123    4.7331225   -3349.8445    305.45604   -1174.1799   0.98810123        0.259 
  519000    1873.4877   -4034.5795    3.9682023   -3383.2528    298.86514   -453.64966    1.0046904       0.2595 
  520000    1876.9381   -4019.8355    5.4643255    -3350.967    306.27294   -790.57268    1.0062919         0.26 
  521000    1880.6327   -3988.3384      4.14305   -3354.3293    290.78948    649.70091   0.98739875       0.2605 
  522000    1884.3768    -3973.753    4.1126671   -3326.7627    296.79651   -983.24626    1.0007536        0.261 
  523000    1888.1863   -3970.0563     5.332033   -3323.4841    296.04055    565.48879    1.0037289       0.2615 
  524000    1891.9269   -3915.5763    5.2760386   -3252.6779     303.6037    377.56362   0.99817306        0.262 
  525000    1895.6484   -3951.3368     5.175664   -3330.8908    284.05111   -794.54174   0.98278123       0.2625 
  526000    1899.3857   -3971.8589    3.1026159   -3347.4375    286.84347   -666.77341   0.98076027        0.263 
  527000     1903.133   -3973.4952    5.1057132   -3326.5874    296.29995    636.03843   0.99220243       0.2635 
  528000    1906.8863   -3996.0803    2.9609221    -3362.313    291.22356    -234.1322   0.99913491        0.264 
  529000    1910.6112   -3963.0086    8.1182277   -3283.7102    309.86291    769.70972   0.98947737       0.2645 
  530000    1913.8159   -3999.7102    4.8792417   -3359.4655    293.32837    284.90888    0.9943755        0.265 
  531000    1917.6229   -4027.1414    4.4730025   -3389.1874     292.4584    559.20227   0.97894933       0.2655 
  532000    1921.3059   -3978.4435    3.6696472   -3331.0193    297.20134    384.26282   0.96313447        0.266 
  533000    1924.9506   -4047.3252    2.8031743   -3430.6526    283.40431   -10.868491   0.99771941       0.2665 
  534000    1928.6427    -3995.939    5.8038488   -3341.5615    299.42619    1124.0309    1.0063277        0.267 
  535000    1932.3842    -3952.902    6.3942814   -3316.5059    290.85212    574.62544   0.99087836       0.2675 
  536000    1936.1252   -4017.6965    4.0977336   -3371.0434    296.64774    1137.3302    1.0116052        0.268 
  537000     1939.668   -4005.9003    4.7224924   -3351.1524    300.09637   -496.64614   0.97561113       0.2685 
  538000    1942.7431    -3979.286    5.9157959   -3321.3334    301.02499    934.43132    0.9848145        0.269 
  539000    1945.4673   -4026.9291    3.9713257   -3386.7452    293.71949   -115.18788   0.98135763       0.2695 
  540000    1947.7765   -4044.6812    5.4255694   -3391.4146    299.08795    484.65025   0.98965513         0.27 
  541000    1950.9321   -3997.6245    5.3404076   -3347.0203    297.89815   -1609.7942   0.98801519       0.2705 
  542000    1954.6679   -3998.2841     3.728729   -3310.6926    315.71805    685.55454   0.99371467        0.271 
  543000    1958.3915   -4014.4439    5.0663197   -3354.0888    302.52633    666.85745   0.97792752       0.2715 
  544000    1962.1181   -4011.9878    3.7747286   -3340.3316    308.34001   -630.32793   0.97013433        0.272 
  545000    1965.8874   -3988.9799    4.4555055   -3336.8059    299.03139   -678.52402   0.96746039       0.2725 
  546000    1969.6565   -3957.2306    5.9863911   -3325.9361    288.68518   -156.94391    0.9709415        0.273 
  547000    1973.4475   -3975.2164    5.1456681   -3334.1008    293.60744   -29.463356   0.99501087       0.2735 
  548000    1977.1927   -4017.2091    6.0811092   -3375.2825    293.54998    336.86304   0.98395281        0.274 
  549000    1981.0674   -3984.6866    6.5828408    -3325.358    301.35233    628.93428   0.98032186       0.2745 
  550000    1984.8134   -4058.4952    3.0906434   -3393.5932    305.53762   -161.75909   0.99211255        0.275 
  551000    1988.5509   -3968.7075    5.1281211   -3343.1381    286.43836   -251.32952   0.96397231       0.2755 
  552000    1992.2725   -4029.5286     9.463016   -3374.9722    297.81947   -796.83392   0.96650056        0.276 
  553000    1995.9907   -4012.4749    5.9973643   -3325.0707    314.58426    1031.5464   0.98363017       0.2765 
  554000    1999.6101   -3935.8311    7.5114075   -3285.6902    296.68192   -2104.1997   0.95978756        0.277 
  555000    2002.2375   -4003.6716    7.0956291   -3349.0835    298.92701    574.67677   0.99197448       0.2775 
  556000    2004.5692   -3986.3226    7.5959298   -3360.5892    285.37476    1276.2809   0.99912001        0.278 
  557000    2006.9124   -3976.9188    5.3413403   -3307.1189    306.75971   -294.63638   0.99388479       0.2785 
  558000    2009.2538   -4008.9682    5.5699038   -3358.8622    297.56215    877.82802   0.99447265        0.279 
  559000    2011.5722   -4044.7171    5.3813859   -3380.8934    303.98221    376.19388   0.99812381       0.2795 
  560000    2013.9168   -4044.3349    4.0555544     -3400.84    295.20911   -648.75918   0.97437244         0.28 
  561000    2017.1182   -4055.6175    4.2802943   -3383.3586    308.38483    192.69497    1.0025436       0.2805 
  562000    2020.8399   -3991.3674    5.5392371   -3342.6674    296.92722   -1075.9139   0.99350741        0.281 
  563000    2024.5649   -4017.8978    4.6521997   -3378.7442    292.92945   -206.27687   0.98448383       0.2815 
  564000    2028.1977   -4018.5023    6.9491989   -3356.6059    302.36863   -124.74689   0.99421102        0.282 
  565000    2031.8518   -4049.3107    5.2892506   -3388.6971    302.54274    54.457166    1.0025009       0.2825 
  566000    2035.5896   -3969.7688    5.8493415   -3316.4155    298.93234   -353.62219   0.99827413        0.283 
  567000    2039.3524   -3993.4158    6.8836877   -3316.5207     309.3233    1538.9042   0.99616905       0.2835 
  568000    2043.1833   -4053.2534    3.8480998   -3413.2333    293.70071    771.22142    1.0113878        0.284 
  569000    2046.9642    -3956.244    4.1771832   -3284.0139    308.41914    525.01392   0.97328701       0.2845 
  570000    2050.6893    -3992.723    5.2434402   -3357.6196    290.78664    519.46695   0.97550334        0.285 
  571000    2054.1233   -3976.7719    3.6904022   -3324.7078    299.33385   -69.495416   0.97471995       0.2855 
  572000    2057.6481   -4035.8776     5.052902    -3365.284     307.2593    376.98818   0.98968507        0.286 
  573000    2061.2738   -4003.1618     6.356072   -3348.4947    299.30493   -344.65438    0.9964636       0.2865 
  574000     2064.968   -4003.9759    6.1320968   -3373.9373    288.03814   -544.03212   0.96855964        0.287 
  575000     2068.552    -4012.913    5.0331318   -3363.5948    297.44623    510.07681   0.96693058       0.2875 
  576000    2072.2391   -4000.9237    5.1917459   -3344.0478    300.86221    70.363486   0.97084707        0.288 
  577000    2075.9733    -3990.794    4.4506999   -3368.4546     285.2599    229.74374    0.9868734       0.2885 
  578000    2079.8614   -3948.7537    5.5060415   -3308.8961    292.86027   -874.16576   0.96840542        0.289 
  579000    2083.6443   -4000.5824    8.0107679   -3357.4439    293.21858    253.78366   0.98162879       0.2895 
  580000    2087.3631   -4012.0139    3.8655492   -3363.5671    297.58301    624.02513   0.99764421         0.29 
  581000    2091.1041   -3981.7029    6.4205477   -3334.7298    295.72306    586.66881   0.99031557       0.2905 
  582000    2094.9034   -4055.8347    7.2652083   -3398.0863    300.30774   -745.34099   0.99795397        0.291 
  583000    2098.8244   -4052.4612    6.7507128   -3405.2259    295.69167    293.67887   0.99905871       0.2915 
  584000    2102.7174   -3971.1276    4.8773736   -3340.0329    289.10495   -872.59941   0.98016088        0.292 
  585000    2106.6291   -3999.4601    6.5056344   -3387.2013    279.65728    1428.4922   0.99219574       0.2925 
  586000    2110.4753    -3988.166    6.7614428   -3323.2005    303.87223    686.55001    1.0044905        0.293 
  587000    2114.1635   -3995.8283    5.4616798   -3374.6861    284.24045    534.45434   0.96678166       0.2935 
  588000     2117.879   -4027.1013    5.2624364   -3362.7913    304.26165   -188.49818   0.99263003        0.294 
  589000    2121.5991   -4000.8908    4.6183741   -3347.4087     299.5601   -57.428843   0.98690922       0.2945 
  590000    2125.3137   -3996.7744    5.1554435   -3315.7524    312.02646     510.1662   0.98317403        0.295 
  591000    2128.8139   -4041.3049    4.3739282   -3364.8473    310.28002    671.18787   0.95293583       0.2955 
  592000    2132.3702   -4052.5363    4.2046651   -3410.5337    294.45135    1181.4941    1.0038133        0.296 
  593000    2135.9473   -4025.5477    4.2500863   -3384.8512    293.82738   -200.81348   0.98494264       0.2965 
  594000    2139.3853   -3946.7815     4.373418   -3290.7021    300.87229   -879.66224   0.99727321        0.297 
  595000    2142.4467   -3984.4353    3.9623639   -3340.4669    295.47077    438.36953   0.99856288       0.2975 
  596000    2146.0571   -3986.2516    2.8751444   -3327.2762    302.90098   -825.63721   0.97696729        0.298 
  597000    2149.9381   -3993.9843    5.6765193   -3343.3697    297.74778   -850.40002   0.97714831       0.2985 
  598000     2153.727   -4023.1555    3.6853515   -3364.9145    302.18787    266.65172   0.98680119        0.299 
  599000    2157.5277   -4073.3857    3.7498519   -3433.5105    293.67922   -297.13703    1.0048069       0.2995 
  600000    2161.3337   -4000.7648    4.3020202   -3330.7008    307.36149    1431.0983     1.014128          0.3 
  601000    2164.8358   -4022.4141    2.6324971   -3369.0935    300.40234   -149.06972   0.99196972       0.3005 
  602000    2168.3315    -3983.329    5.2242732   -3334.4307    297.16417    725.43958    1.0071095        0.301 
  603000    2171.7792   -4026.0726    4.5558392   -3410.9842    281.86379    1073.2587    1.0147762       0.3015 
  604000    2175.1012   -3979.7118     4.281774    -3346.656    290.28532    1610.5769    1.0100506        0.302 
  605000    2178.4629   -4023.1992    3.7931853   -3371.9217    298.92326    706.63065   0.99104035       0.3025 
  606000    2181.8194   -4054.4275    3.2439647   -3377.7218    310.91622    297.36571   0.99574787        0.303 
  607000    2185.2412   -4057.9545    5.3803196   -3403.0299    299.87426    1842.2283    1.0058602       0.3035 
  608000    2188.6559   -3935.8348     2.738773   -3258.6196    311.38466    976.20083   0.99355964        0.304 
  609000     2192.047   -3977.3424    4.2090681   -3319.2849    301.86139    481.68251   0.98591846       0.3045 
  610000    2195.4486   -3975.6904    6.7512254   -3304.8136    306.60598    225.24874   0.98077359        0.305 
  611000    2198.7486   -3975.5541    4.7025423   -3315.6799     302.4723   -238.40859   0.97462823       0.3055 
  612000    2201.9999   -4016.1001    3.7454653   -3340.3539    310.24172   -159.34439   0.98851708        0.306 
  613000     2205.028   -4002.4966    5.0170637   -3338.0928    304.41825    -232.4961   0.98473155       0.3065 
  614000    2207.1791   -3950.2658    4.2525599   -3295.8062    300.18027   -12.072134   0.98354955        0.307 
  615000    2209.2998   -3983.1872    4.1068811   -3340.2908    294.90914   -64.342062   0.97538545       0.3075 
  616000    2211.4312   -4025.2229    5.1518349   -3356.0587    306.55377   -127.36235   0.98104049        0.308 
  617000    2213.5785   -3961.7171    3.9282855   -3339.6332    285.38312    279.14323   0.99455951       0.3085 
  618000    2215.8677   -3943.9932     5.787538   -3294.9691     296.9622   -95.035655   0.97891805        0.309 
  619000    2219.1983   -4005.8798    5.0036529   -3342.6385    303.88773    742.24925    0.9946845       0.3095 
  620000    2222.5789   -3983.6179    5.1223552   -3349.7274    290.28257   -381.38192    0.9843751         0.31 
  621000    2226.3301   -4026.4835    4.5627772   -3392.2491    290.69967   -1502.5638   0.95870691       0.3105 
  622000    2230.1019   -3985.4598    4.8434939   -3326.1376    302.15237    1268.2623   0.98856306        0.311 
  623000    2233.5125   -4028.3472    6.1648378    -3387.943    292.80847    -830.3092   0.97830531       0.3115 
  624000    2235.8551   -4032.5111    4.9033419   -3410.9589    284.68753   -1002.1849   0.97529527        0.312 
  625000    2239.3063   -4028.1249    6.1401275   -3371.8941    300.12655     705.0228     0.983694       0.3125 
  626000    2242.6327   -4023.5747    5.6791755   -3371.5604    298.39271    12.128973     0.991598        0.313 
  627000    2245.2776   -3998.2626    7.8063155   -3342.8504     298.9794      83.6809   0.97515683       0.3135 
  628000    2248.9183   -4015.0897     5.655752   -3341.5409    308.34537    -529.5922   0.97296385        0.314 
  629000    2252.6135   -4059.3579    5.0722714   -3410.0342    297.43073   -647.43656   0.99464022       0.3145 
  630000    2256.5136   -3966.1647    8.0100001   -3297.6981    304.91215    1388.9717    1.0022532        0.315 
  631000    2260.2429   -4010.6478    6.9139597   -3361.2007    296.63747    26.814246    1.0005711       0.3155 
  632000    2263.9977   -3967.6296    7.2321893   -3300.5108    304.64902   -547.12955   0.99028319        0.316 
  633000    2267.8083    -4017.488    6.0447346   -3380.8126    291.14249    737.10975    1.0098745       0.3165 
  634000    2271.6221   -3998.2824    9.9475845   -3353.6191     293.0284    918.86492   0.99598687        0.317 
  635000    2275.4709   -3989.0221    3.8006712   -3325.1167    304.74972     531.7893   0.97923166       0.3175 
  636000     2279.413   -3993.7487    8.0985628   -3360.1983    288.75156   -819.36106   0.96330981        0.318 
  637000    2283.2388   -3934.4054    7.1406408    -3278.926    299.31773   -133.61668   0.97326841       0.3185 
  638000    2286.9655   -4004.4616    5.3485635    -3362.157    294.06268   -554.27637   0.97093101        0.319 
  639000    2290.7435    -4012.531    5.7161529   -3392.1775    283.75884   -30.512031   0.99649503       0.3195 
  640000    2294.5143   -3975.6036    7.5286769   -3304.2219    306.48019    897.91329   0.99373649         0.32 
  641000    2298.2938   -4035.4172    5.8069186   -3372.8103    303.22402    798.81559     1.003882       0.3205 
  642000    2302.0065   -4001.9541    5.8081554   -3328.8015    308.09209    1206.1282    1.0002117        0.321 
  643000    2305.6807   -4039.9158    3.6062457   -3363.2311    310.73927   -26.924028   0.98157497       0.3215 
  644000    2309.2992   -3981.9646    4.8189615   -3297.9163    313.57895    1350.9105   0.99074759        0.322 
  645000    2311.8116   -3968.4092    6.1227915   -3348.4459    283.39094   -1536.3636   0.95766674       0.3225 
  646000    2314.1421   -4025.8479    5.2005519   -3392.3035    290.08667    172.16819    0.9938674        0.323 
  647000    2316.4833    -4010.917      5.89963   -3361.1694    297.24446   -460.62618   0.98377303       0.3235 
  648000    2318.8209   -3972.3461     9.028084   -3346.7563    284.64729    1564.9672   0.99751088        0.324 
  649000    2321.1948   -3963.5158    4.4927884   -3312.7802     298.3501   -358.99939   0.99587798       0.3245 
  650000    2324.5639   -3991.1556    6.8929334   -3330.9272    301.62453   -708.17968    1.0010599        0.325 
  651000    2328.0877   -3998.7383    6.5018675   -3370.8829    286.85948   -421.66403   0.97866174       0.3255 
  652000    2331.3601   -3983.5571    5.1453699   -3340.1664    294.65789    204.08625   0.99560061        0.326 
  653000    2334.9404   -4013.7494     4.291915    -3328.934    314.17639     64.79446   0.98431255       0.3265 
  654000    2338.6913   -4009.3449    4.9412903   -3361.9871    296.58362   -678.53878    0.9894588        0.327 
  655000    2342.2374   -4045.1611    5.7640846    -3413.674    288.87677   -1343.3272   0.98967215       0.3275 
  656000    2344.5467   -4063.5864    2.7244021   -3439.0488    287.07171      351.595   0.99344324        0.328 
  657000     2346.971   -4069.1981    5.1222056    -3420.051    297.32616    187.33164   0.99761933       0.3285 
  658000     2349.281   -4004.1154    4.9399286   -3311.0845    317.67009    51.745025    0.9831426        0.329 
  659000     2351.575   -4018.2878    7.1182052   -3356.9449    302.03507   -1198.3936   0.95788623       0.3295 
  660000    2353.9032   -3961.4764    6.4994919   -3314.7773    295.56014    687.81574   0.97305862         0.33 
  661000    2356.2473   -3990.2817    7.7931216   -3329.0483    301.67294   -214.62361   0.98363768       0.3305 
  662000    2358.5656    -3998.247    5.4347522   -3329.3881     306.2822    -223.5449   0.97880826        0.331 
  663000    2360.8764   -3947.2659    11.884819   -3275.7998    304.50806   -821.88695   0.98918617       0.3315 
  664000     2363.192    -4001.355    7.1439798   -3356.7081    294.31515    1034.2665    0.9907677        0.332 
  665000    2365.7678   -3950.1035    9.6121632   -3316.5411     288.0583   -559.73617   0.97022842       0.3325 
  666000    2369.5132    -4006.738    6.8824501   -3357.7718    296.42997    79.162857   0.98260061        0.333 
  667000     2373.142   -4009.3889     4.036364   -3359.0235    298.38988   -341.68779   0.98839531       0.3335 
  668000    2376.9286   -3991.3059    9.1625144   -3354.5536     289.7386     695.2732   0.98429878        0.334 
  669000    2380.8027   -4000.3346    7.2915385   -3355.9832    294.11063   -393.73501   0.98666616       0.3345 
  670000    2384.5481   -3978.7761    3.6550089   -3330.8273     297.4503    398.12389   0.98456643        0.335 
  671000    2388.2811   -3953.1248    9.6793349   -3286.4302    303.32338   -266.80979   0.99447963       0.3355 
  672000    2392.1798   -4019.7201    7.6145627   -3342.8689    308.96564    356.09821   0.97204259        0.336 
  673000    2395.9537   -3988.1845     5.962049   -3339.7642    296.60288     146.2495    0.9955298       0.3365 
  674000    2399.7493   -4057.9014    8.0259919   -3407.0786    296.75919    832.24731    1.0109598        0.337 
  675000    2403.5533   -3976.7559    8.1998348   -3321.3891    298.77673    244.60676     0.977558       0.3375 
  676000    2407.3529   -4038.2173    4.9108719   -3364.0509    308.97437    158.77888   0.98072475        0.338 
  677000    2411.1449   -4051.1303     5.145223    -3396.488    299.85251   -587.58262   0.96277173       0.3385 
  678000    2414.9838     -4042.97    8.1816739   -3386.9115    299.10449   -435.70627    1.0007179        0.339 
  679000    2418.7838   -3920.8498    8.4469769    -3286.078    289.15462    769.70948   0.97826842       0.3395 
  680000    2422.5569   -4025.5765    6.5266073   -3374.9635    297.35452     -1076.53    1.0051662         0.34 
  681000    2426.3944   -3968.8974    6.8539897   -3303.5763    303.99367    788.41347   0.98922035       0.3405 
  682000    2430.1193   -3971.5721    7.4090986   -3340.0465    288.13507   -753.57436   0.98053941        0.341 
  683000    2433.7788   -4029.3106    7.0805176   -3370.3796    300.93898   -834.62767   0.97442175       0.3415 
  684000    2436.3766   -3976.4065    10.722572   -3321.3587     297.4648    130.67352   0.96155192        0.342 
  685000     2438.722   -4000.4332    9.0915838   -3292.8133    322.48867    294.31091   0.98499575       0.3425 
  686000     2441.087   -4006.7032    3.9439939   -3353.7632    299.62116   -543.55754   0.98513422        0.343 
  687000    2443.9914     -3965.25    9.7202019   -3291.6565    306.48952   -246.55163   0.98003537       0.3435 
  688000    2447.4921   -4012.3654    8.4568569   -3374.0639     290.7796    250.08223    1.0091165        0.344 
  689000    2451.1757   -3997.3259    7.4473878   -3324.4628    307.20164    1129.0442    1.0077695       0.3445 
  690000    2454.9679   -3957.5461    7.8911416   -3336.3242    283.15564    -99.84013   0.99613276        0.345 
  691000    2458.7572   -4007.1273    8.5437309   -3367.4044    291.39568   -141.10619   0.99185329       0.3455 
  692000    2462.5516   -4003.7933    6.7782539   -3317.2734    313.81546   -44.440993    0.9983572        0.346 
  693000    2466.3661   -4007.4502    11.372059   -3394.1705    277.88197    -703.4902   0.98412171       0.3465 
  694000    2470.1856   -3968.9845    6.4007711   -3326.4262    293.69405   -474.64385   0.97870041        0.347 
  695000    2473.9338   -3990.5732    4.5483837   -3370.6457    284.10133   -39.408542   0.99342516       0.3475 
  696000    2477.6968   -3996.9837    6.3580207   -3358.3176    291.91687    605.56688   0.99043043        0.348 
  697000    2481.4213   -4038.9758    10.021307   -3381.8036    298.76934   -412.76676   0.98197874       0.3485 
  698000    2485.0838   -4024.3123    10.664604   -3390.1018    287.87164     806.8149    1.0026567        0.349 
  699000    2488.8245   -4007.0983    4.9190336   -3348.1306    301.95381   -497.87837   0.98508567       0.3495 
  700000    2492.5795   -4008.8513    6.2109968   -3306.8088    321.24364   -610.25123   0.98877469         0.35 
  701000    2495.9514   -4048.7818    7.3989108   -3396.7381    297.61235   -164.09338   0.99631821       0.3505 
  702000    2499.3548   -4030.4125    6.2259021   -3352.3395    310.17077    354.70739   0.98860324        0.351 
  703000    2502.7271   -4033.7245    9.2457866   -3382.6945    296.29167   -962.59397   0.98290919       0.3515 
  704000    2506.1524   -4036.2821    7.2878567   -3346.0181    315.30871    527.89776   0.99200116        0.352 
  705000    2509.6309   -3977.7967    7.0564319   -3308.9594    305.52352    528.32322    1.0007207       0.3525 
  706000    2513.0979   -3993.5168    9.1864195   -3353.9128    291.04409     6.027938    1.0008644        0.353 
  707000    2516.5762   -3984.6029    8.9627051   -3339.4629    293.70315    31.809943   0.99067325       0.3535 
  708000    2520.1008   -4045.7248    12.099846   -3409.0956    288.32568    336.35862    1.0083537        0.354 
  709000    2523.5754   -3969.5495    8.7507582   -3339.3625    286.89767   -302.27047   0.99873888       0.3545 
  710000    2526.9892   -4031.5312    9.7415507   -3381.4593    295.62052   -298.03561    1.0107058        0.355 
  711000    2530.4535   -3966.8943    6.3581286   -3322.2847    294.66075   -366.04992    0.9906591       0.3555 
  712000    2533.2542   -4013.7974    6.9129477   -3342.7383     306.6155     735.7269   0.99481648        0.356 
  713000    2536.4535   -3979.4294    8.9935403   -3291.8859    313.26531    730.94004   0.99484267       0.3565 
  714000    2539.5868   -4063.6158    7.5158114   -3391.6487    306.75641      387.437     1.005448        0.357 
  715000    2543.0825   -4023.6195    9.9766914   -3352.2837    305.32883    912.86732   0.99578511       0.3575 
  716000    2546.5806   -4013.7039    8.5664504   -3380.3622    288.43917   -521.83448    1.0128324        0.358 
  717000    2550.1058   -3934.0659    7.0337624   -3298.9934    289.94583   -988.52295   0.97278646       0.3585 
  718000    2553.5782   -4023.6142    6.6553255   -3339.9292    312.56346   -837.32311   0.99105334        0.359 
  719000    2557.0913   -3988.0877    6.8640162   -3369.2439    282.53195    1437.5265    1.0199291       0.3595 
  720000    2560.5737   -3981.7661    6.7685509   -3296.5909    313.19916   -688.01298   0.99688663         0.36 
  721000    2564.2967   -4002.2249    6.1803619   -3344.2251    300.92467   -927.09189   0.98369388       0.3605 
  722000    2567.9611   -3999.2014    2.7904276   -3327.8747    308.64229    -567.9973   0.99135142        0.361 
  723000    2571.6697    -4008.575    6.4174341   -3348.2931    301.86875    457.03561   0.99589239       0.3615 
  724000    2575.4044   -4009.6636    5.0908533   -3354.2716    300.22371   -406.94411   0.98208427        0.362 
  725000    2579.1529   -3951.8752    8.0031451    -3292.627    300.65947    874.70304    1.0050016       0.3625 
  726000    2582.9554   -4003.9682    6.2464422    -3365.985    291.65308   -157.12605    1.0059423        0.363 
  727000    2586.6419   -3997.0941     8.643161   -3345.5306    296.81621      489.202    0.9989524       0.3635 
  728000    2590.2934   -3930.3202    6.5635441    -3244.617    313.53757   -2090.6362   0.96451981        0.364 
  729000     2593.968   -3971.1675    6.2552513   -3312.5572     301.1719    854.71262    1.0015909       0.3645 
  730000    2597.7354   -4052.0102     4.537956   -3357.2986    318.63162    929.01881    1.0108569        0.365 
  731000    2600.6659   -3987.8429    4.6028356    -3312.398    309.70683    184.97888    0.9866649       0.3655 
  732000    2603.0433   -4029.3995    3.9925885   -3401.6729     287.9585   -691.12866   0.99722969        0.366 
  733000    2605.5724   -4012.7095    6.2773194   -3373.1952    292.34574   -419.47801   0.98493765       0.3665 
  734000    2609.2837   -4081.2387    4.0625746   -3447.8186    290.55467   -713.58144   0.97272882        0.367 
  735000    2612.9433   -4010.9064    5.1195123   -3374.3671    291.50678   -1377.3163   0.97254993       0.3675 
  736000    2616.7233   -4022.7754    5.7441957   -3408.5794    280.90315    173.85259   0.99121713        0.368 
  737000    2620.4786    -4037.096     3.032978   -3337.4409    321.60867   -616.68565   0.98298907       0.3685 
  738000    2624.2529   -4018.2429    3.4329689   -3337.8181    312.54594    1048.7081    1.0040613        0.369 
  739000    2627.9892   -4007.9427    5.1860959   -3369.2523    292.46913   -563.87631   0.98834828       0.3695 
  740000    2631.7541   -3977.0935    5.9374419   -3343.8507    289.60728    284.12401   0.99479247         0.37 
  741000    2635.5626   -4022.6992    4.5170456   -3365.0185    301.54524    36.597265    1.0025449       0.3705 
  742000    2639.3744   -3995.6075    8.5095995   -3322.1602    306.98091   -282.11025   0.98164988        0.371 
  743000    2643.1123   -4024.7774    11.339249   -3358.2741    302.46876    293.98332    1.0012888       0.3715 
  744000    2646.7654   -3936.4297    6.2418747   -3260.3036    309.26461   -14.887608   0.98991659        0.372 
  745000    2650.3156    -3982.892     7.706528   -3284.3008    318.95985    960.70982    1.0009405       0.3725 
  746000    2653.9453   -3991.4835    4.6006082   -3334.4927    301.18815    438.30842    1.0089668        0.373 
  747000    2657.5486   -4037.3182    3.8197541   -3370.6874    305.99912    1491.0593   0.99289922       0.3735 
  748000    2661.1769    -4010.495     3.205873    -3362.073    297.87612    182.33174   0.98044883        0.374 
  749000    2664.8054   -4000.3797    4.6283207   -3349.0145    298.57819    435.00516   0.99243177       0.3745 
  750000    2668.4834   -3975.8921    5.0141812     -3302.79     308.4353   -912.68519   0.98911793        0.375 
  751000    2672.2052   -3962.1006    7.9614575   -3340.9476    283.09137     11.50729   0.97809551       0.3755 
  752000    2675.0881   -3977.1363    5.1880652   -3314.9083     303.3348   -1481.4217   0.96389185        0.376 
  753000     2678.454   -4004.9825    6.9633421   -3309.2837    317.96762   -306.82949   0.96974705       0.3765 
  754000    2682.2409   -4019.4432    6.2346439   -3344.9669    308.50627    655.59843   0.99699376        0.377 
  755000     2686.031   -3945.4861    4.9720293   -3253.4977    317.17394    505.80146    0.9939724       0.3775 
  756000    2688.7969   -3997.1722    3.4012514   -3361.2642    292.00856    312.79519   0.98836523        0.378 
  757000    2691.1178   -4029.5392    4.5450263   -3413.8038    282.16747   -456.02384   0.98281747       0.3785 
  758000    2694.2465   -4038.0491    5.9561905   -3355.8848    312.18411    196.49239   0.99182028        0.379 
  759000    2696.5286   -4022.8044    6.9074084    -3372.983    296.81324    363.73267   0.98286043       0.3795 
  760000    2698.8346   -4001.9206    6.4094252   -3358.0771     294.2834   -703.67006   0.98753888         0.38 
  761000    2701.1886   -4015.9597    7.7998509   -3375.0824    292.27205   -926.14933   0.97527025       0.3805 
  762000    2703.4895    -3953.509     7.599683    -3269.642    312.21147    882.84671   0.98686108        0.381 
  763000    2705.8377   -4014.2647    5.6349282   -3344.9807    306.38605    413.88377   0.98516167       0.3815 
  764000     2708.213   -3990.9243    5.6654311   -3349.7373    293.40041    708.35946    1.0182851        0.382 
  765000    2710.6114   -4025.8303    4.1369668    -3369.407    301.14021    853.57348    1.0035869       0.3825 
  766000    2713.9294    -3986.779    4.0542349   -3346.0189    293.94716   -1307.6636   0.98529139        0.383 
  767000    2717.4242   -4027.9364    7.2725762   -3360.3676    304.83812   -206.88224   0.99080765       0.3835 
  768000    2721.1531   -4034.2829     7.136318    -3397.743    290.57595    285.93098   0.98794504        0.384 
  769000    2723.6545   -3998.2993    5.9109689   -3360.9112    291.53324   -870.86415   0.99460983       0.3845 
  770000     2727.379   -3994.1813    5.9406683    -3343.622    297.60026    77.290193   0.98200645        0.385 
  771000    2731.1047   -4003.1923    4.4695456   -3362.3829    293.77821   -704.61884   0.96999279       0.3855 
  772000    2734.8848   -3966.6573     6.779047   -3333.6974    289.08811     494.2898   0.98831174        0.386 
  773000    2738.5825   -3982.3826    5.5289161   -3316.0162      305.088   -1193.8775   0.98740291       0.3865 
  774000    2742.1904   -3945.5991    5.7659489   -3276.1362    306.40813    340.64727   0.98899973        0.387 
  775000    2745.8617   -4004.9343    4.7495869   -3350.4864    299.94541    687.41167   0.99795979       0.3875 
  776000    2749.5141   -4038.9024    5.3201898   -3343.4077    318.63202    -949.4233   0.99550167        0.388 
  777000    2753.2131   -3981.6454    4.8378566   -3342.3139    292.92586   -665.94193   0.99581638       0.3885 
  778000    2756.9721   -3980.8067    7.9408716   -3314.4128    303.98718    582.48765     1.007221        0.389 
  779000    2759.7482   -4006.7851    5.3308113   -3322.1214    313.62676    360.54943    0.9859123       0.3895 
  780000    2763.5441   -4032.1495    7.3866055   -3365.4659    304.37678   -395.14634   0.98368496         0.39 
  781000    2767.3067   -4011.4119    4.5406955   -3351.6046    302.51609    728.69262    0.9918371       0.3905 
  782000    2771.0879    -3990.145    5.3465933   -3334.9335    300.02232   -977.57328   0.97666604        0.391 
  783000    2774.8401   -4041.5821    7.7880993   -3390.7249     296.8849   -759.50591   0.98126626       0.3915 
  784000    2778.1368   -3975.2754    5.0856509   -3359.6154    281.88306    63.225858   0.99063444        0.392 
  785000     2781.577   -3994.9023    6.0962634   -3322.1182    307.78892   -653.76569   0.97483717       0.3925 
  786000    2785.1919   -4013.2422    6.2690188   -3369.7845     294.1701   -221.64585    1.0066069        0.393 
  787000    2788.1649   -4048.6241    4.5691725   -3399.9922    297.34358   -105.16366    1.0023299       0.3935 
  788000    2790.4945   -4012.6667    7.5951924   -3376.6367    290.12872    180.04527   0.98218109        0.394 
  789000    2792.8051   -3992.5047    7.5672628   -3302.5413      315.041    -520.9785   0.99149334       0.3945 
  790000    2795.1277   -3985.7977    4.4213738   -3310.9079    309.53431   -906.69279   0.98576061        0.395 
  791000    2797.6966   -3974.8162    3.6648975   -3325.8995    297.89258   -65.224023   0.98925878       0.3955 
  792000    2801.2812    -3973.947     5.427564   -3340.9244    289.74099   -18.799322   0.97551135        0.396 
  793000    2804.8572   -3990.9274    6.7901835   -3328.2106    302.82084   -65.918616   0.98977261       0.3965 
  794000    2808.4261    -3991.486    7.7791269   -3344.0995    295.28673     571.5402   0.98578095        0.397 
  795000    2812.0267    -4031.939    5.0750654   -3391.1671    293.48133    132.16919   0.98804845       0.3975 
  796000    2815.5898   -3989.8956    3.6874726    -3341.153    297.80181   -598.74028   0.99312058        0.398 
  797000    2819.3252   -4024.1423    5.9184314   -3322.8173    321.04744    1080.1236    1.0178701       0.3985 
  798000    2823.1141   -4004.9741    5.6872654   -3368.3893    291.26566    788.46235    1.0087258        0.399 
  799000    2826.0105   -4076.2566    6.5314436   -3416.5814    301.53602    416.74507   0.98856025       0.3995 
  800000    2828.3315   -3975.3081     6.026711   -3294.7063    311.43021    74.142171    0.9715429          0.4 
  801000    2830.4521    -3981.251    5.6264511   -3332.9651    296.69573    455.37151   0.99819496       0.4005 
  802000     2832.567   -3998.0477    5.7443579   -3321.3357    309.76477    376.15067   0.99072664        0.401 
  803000    2835.7135   -4026.6187    6.6762603   -3369.7636    300.16723   -276.77343   0.99406584       0.4015 
  804000    2839.1759   -4024.7336     6.060398   -3378.2254    295.67473   -209.63423    0.9988087        0.402 
  805000    2842.5994   -3961.4084     6.841651   -3314.4553    295.51945   -891.40134   0.97134747       0.4025 
  806000    2845.9946   -3989.4021     8.172948   -3329.4847    300.89001     216.0846   0.99413409        0.403 
  807000     2849.468   -3995.9822    9.8043472   -3366.1402    286.25198   -1157.6547    0.9755703       0.4035 
  808000    2852.9222   -4037.1572    7.3171992   -3371.3792    303.99076   -468.78436   0.99985085        0.404 
  809000    2856.3808   -3989.7928    5.3196893   -3350.1348    292.85419    1352.1245    1.0165528       0.4045 
  810000    2859.8114    -4009.369    3.9215366   -3402.3489    278.43173   -165.42998    1.0072665        0.405 
  811000    2863.2825   -4028.6041    8.1832456   -3356.4855    306.51822   -194.69822    1.0198418       0.4055 
  812000    2866.7098   -3961.4543    5.8526523   -3325.8042    290.75778   -264.42142   0.99412931        0.406 
  813000    2870.1731   -3993.0928    6.9152252   -3324.6305    305.41559    1095.2166     1.007789       0.4065 
  814000    2873.5289   -3966.8863    6.0573658   -3279.1739    314.69879    509.55377    1.0042645        0.407 
  815000    2875.6983   -4005.5953    6.0154704   -3363.6544    293.58687    411.16483     1.000522       0.4075 
  816000    2877.8178   -4049.7854    3.4317039    -3375.722    309.60969   -728.11647   0.98824046        0.408 
  817000    2879.9294   -4042.5848    4.6797936   -3376.9469     305.1437   -483.65133   0.99581047       0.4085 
  818000    2882.0774   -3976.6213    4.0835175   -3330.0762    296.60442    11.488747   0.99384598        0.409 
  819000     2885.145   -3993.9615    8.5156302   -3365.8117    286.06569    233.11884    1.0048222       0.4095 
  820000    2888.5142   -4001.2229    7.0137526   -3361.4318    292.13353   -594.85012   0.97046901         0.41 
  821000    2892.1829   -4008.7147      7.44197   -3320.9652    314.07674    297.95083    1.0257976       0.4105 
  822000    2896.0408   -4059.3867    6.1123855   -3395.9131     303.4831    -437.8648    1.0203683        0.411 
  823000    2899.8332    -3949.841    4.6322052   -3306.6703     294.7933    1219.7557    1.0023928       0.4115 
  824000    2903.6499   -3970.5524    5.3653705    -3319.906    297.90606   -355.75939   0.99755892        0.412 
  825000    2907.4887   -3983.6257    4.5991989   -3345.4336    292.51006   -1801.9096     1.001015       0.4125 
  826000    2911.3212   -4026.8974    6.4428462    -3365.692    302.28343    575.09625    1.0261446        0.413 
  827000    2915.0666   -4007.9689    8.9420316   -3363.2786    293.50507   -1384.5988   0.96811104       0.4135 
  828000    2918.8956   -4015.3648    5.4729229   -3352.5614    303.46895    664.96191    1.0118114        0.414 
  829000    2922.6035   -4010.9992    10.177716   -3371.6053    290.48943    265.74625   0.98471645       0.4145 
  830000      2926.39   -4050.7794    5.8211392   -3400.8421     297.3683    144.08036    1.0039054        0.415 
  831000    2930.0726   -4049.9054     4.074828   -3402.0819    297.19863   -226.92013   0.99982944       0.4155 
  832000    2933.7247   -4022.4028    4.7416789   -3376.2273    296.12996    -486.3166   0.98508469        0.416 
  833000    2937.3782   -4023.8086    9.3096631   -3390.4374    288.10972   -836.33196   0.96693802       0.4165 
  834000    2940.9479   -3993.5001    6.7711667   -3362.5323    288.17206    271.46326   0.99777487        0.417 
  835000    2944.5183   -4008.3578    3.6981827   -3359.2416    297.96932   -1229.2465   0.98003511       0.4175 
  836000      2948.31   -4043.1554     6.904123   -3353.2098    315.33886    63.494565    1.0018708        0.418 
  837000    2952.0112   -3997.8829    5.8706234   -3364.0328    289.91851   -354.26448   0.98244073       0.4185 
  838000    2955.8371     -4013.69    6.9804947   -3374.4902    291.87586    469.96636     1.013316        0.419 
  839000    2959.7901   -3998.4492    6.6011698   -3307.6676    315.86471   -1285.3862   0.98496135       0.4195 
  840000    2963.7237   -4050.7145    6.7394369   -3404.5039    295.22383   -406.27437    1.0001092         0.42 
  841000    2967.4751   -3988.2838    4.1595125   -3336.2404    299.10772   -1035.7402   0.97878308       0.4205 
  842000    2971.0174   -3952.0457    5.1985707   -3287.7025    304.30647    577.92275   0.97834507        0.421 
  843000    2974.7685   -3972.4047    3.4188921   -3310.4064    304.04554   -659.06666   0.98446772       0.4215 
  844000      2978.54   -4016.0088    7.7523227   -3349.5032    304.12582   -288.74013    1.0020593        0.422 
  845000    2982.3288   -4048.4965    6.1089944   -3389.9446    301.21248    45.358133   0.98790832       0.4225 
  846000    2986.0834   -4081.0385    5.9952512    -3403.406    310.07391      809.069   0.98679567        0.423 
  847000    2989.8497   -4019.3614    6.2936204   -3367.4551    298.05916     597.2583   0.98706655       0.4235 
  848000    2993.5898   -4011.6648    8.6793467   -3357.0398    298.21293    558.98389   0.98817303        0.424 
  849000    2997.3767   -4013.8048    6.3025474    -3343.907    306.36116    498.21315   0.99136963       0.4245 
  850000      3001.11   -3962.4764    4.9996083   -3316.9015    295.73358   -594.41319   0.99222637        0.425 
  851000    3004.8806   -4009.6229    5.2014031   -3357.4595    298.68214    -89.76389   0.99786073       0.4255 
  852000    3008.6648   -4023.5943    7.4184877   -3331.3232    316.17503   -39.623222   0.97795557        0.426 
  853000    3012.4686   -4008.7395    8.1860653   -3340.7277    304.62095    166.08835    1.0105983       0.4265 
  854000     3016.198   -3998.9091    6.0717438    -3353.005    295.39058   -926.01625   0.98557563        0.427 
  855000    3019.9132   -4030.5607    9.1242971    -3341.141    314.07111   -988.31086   0.97593574       0.4275 
  856000    3023.6193   -4058.5941    4.5916376   -3409.0261    297.76542    223.56549   0.98706998        0.428 
  857000    3027.4049   -4018.1691    5.6303446   -3383.1789    290.55577   -150.56013   0.97575672       0.4285 
  858000    3031.1775   -4005.2814    3.8660769   -3352.9619    299.37065    1289.2958    1.0024447        0.429 
  859000    3034.8795   -3979.9974     4.072646   -3333.2036    296.72428   -633.32563   0.96734805       0.4295 
  860000    3038.5877   -3936.2562    4.4238761   -3276.2667    302.65415    1185.8353    0.9551884         0.43 
  861000    3042.3898   -3995.9727    5.2841229   -3340.6671    300.09458   -4.5606402   0.98813661       0.4305 
  862000    3046.0923   -4010.8011    4.1696279   -3335.0054    310.06873   -435.89825   0.97372427        0.431 
  863000    3049.8797   -3954.7268    6.2170778   -3287.6023    305.12028   -543.95285   0.99024636       0.4315 
  864000    3053.6813   -4017.5515    4.3230599   -3374.5861    294.84123   -838.89835   0.97399173        0.432 
  865000    3057.4641   -3977.5373    5.9699607   -3318.5059    301.49807    216.58999    0.9746199       0.4325 
  866000    3061.1823   -4008.7299    4.5920529   -3370.5754    292.49598   -1064.1067   0.96916837        0.433 
  867000    3065.0202   -4006.4059    4.6283206    -3354.345    298.89938    35.392976    0.9995432       0.4335 
  868000     3068.813    -4085.059    3.9588112   -3457.6088    287.84647    367.10391    1.0114212        0.434 
  869000    3072.6657   -4018.6269    3.5569699   -3351.2965    306.44346    568.75661   0.99323173       0.4345 
  870000    3076.4904   -3942.5006    4.4970802   -3280.8457    303.38919   -419.70733   0.99618603        0.435 
  871000    3080.4194   -4024.1256    4.0275543   -3339.5625    314.18196    1853.6961   0.99828498       0.4355 
  872000    3084.3216   -3999.1373    6.0590309   -3352.1848    295.88048   -1084.7804    0.9884501        0.436 
  873000    3087.6885   -3928.7307    5.8303526   -3272.0222    300.49006   -188.61312    0.9766998       0.4365 
  874000    3090.9341   -3986.3371    4.1108228   -3350.3045     291.7385    131.27843   0.97430578        0.437 
  875000    3094.6326   -3996.7518    6.3269494   -3347.0458    297.02797   -6.8451741    1.0026067       0.4375 
  876000    3098.3934   -3955.6253     5.862901   -3294.8751    302.34099   -522.95271   0.99510573        0.438 
  877000    3102.1623    -3968.292    4.6482773   -3333.3109    291.00494   -72.236787    0.9827912       0.4385 
  878000     3105.952   -4036.5905    4.1961408   -3412.1204     286.3611    492.08406   0.98976809        0.439 
  879000    3109.8085   -4029.4572    6.2950209   -3357.9862    307.09094    637.33667   0.99651154       0.4395 
  880000    3113.2816   -3983.2553    3.5507894   -3352.5842    289.52183    372.59469   0.99182951         0.44 
  881000    3115.6113   -4042.3742    6.6803073   -3398.7475    294.05823    219.31743    1.0129375       0.4405 
  882000    3117.9748   -4022.3565    4.0588008   -3365.8703    301.20536    356.28438    1.0075869        0.441 
  883000    3120.3366   -4038.8554    3.2567233   -3379.1115    303.07959    454.25163     1.002038       0.4415 
  884000    3123.0931   -4052.4985    3.3613131   -3395.9727    301.54561   -1403.4517   0.99270363        0.442 
  885000    3126.8429   -3975.8444    8.4893687   -3311.6969    302.69682    -415.5761   0.97414675       0.4425 
  886000    3130.5647   -4013.1043    4.6740123   -3352.0939       303.01    380.39739   0.98669465        0.443 
  887000    3134.2539   -4017.4801    6.2197559   -3356.1235    302.45615    221.53183    1.0045492       0.4435 
  888000    3137.8897    -4005.299    5.9247098   -3364.9102    292.91222   -526.86284   0.96496534        0.444 
  889000    3141.4851   -4014.3141    3.5626906   -3368.9345    296.30679   -203.12404   0.96812815       0.4445 
  890000    3145.1798      -3972.6    5.2467858   -3344.9646    287.33738    395.07936   0.97371117        0.445 
  891000    3148.9142   -4041.0204    6.0912268   -3364.8734     309.3438    476.70312   0.98206669       0.4455 
  892000    3152.6468   -3984.0886    5.1718774   -3319.7285    304.32657    943.76284   0.98176394        0.446 
  893000    3156.3273   -4004.4213    6.5808222   -3371.2296    289.28666   -388.89719   0.99153996       0.4465 
  894000    3160.0825   -4033.4842    5.0385263   -3403.7089    288.42141   -710.49786   0.97611286        0.447 
  895000    3162.4274   -3966.0009    5.6413466   -3327.2856    292.27046    729.33498    1.0076239       0.4475 
  896000    3165.6858   -4056.4288    5.5043782   -3397.4545    301.68662    233.02325   0.96272487        0.448 
  897000    3169.3129    -4025.674    3.0873303   -3391.0243     291.5726    -468.2785   0.98177181       0.4485 
  898000    3172.9172   -4008.0054    8.2693637   -3330.5807    308.92808    590.28843   0.98808123        0.449 
  899000    3176.5193   -3972.3551    6.2611887   -3333.8159    291.90302    1323.6763    0.9920979       0.4495 
  900000    3180.0652   -4017.1237    7.7643735   -3346.2422     306.1404   -661.59797   0.96578204         0.45 
  901000    3183.2887   -4009.7386      8.38939   -3385.8376    284.16247   -71.249847   0.99088023       0.4505 
  902000    3186.5787   -4017.1735    7.5639077    -3357.221    301.18737    758.67527   0.99070837        0.451 
  903000    3189.9509   -3991.9811    5.3325979   -3368.9186     285.1866   -345.92539   0.99005543       0.4515 
  904000    3193.5053   -4039.1252    6.2966632   -3405.7884    289.48484   -708.45289   0.99836672        0.452 
  905000    3196.9325   -4013.5832    6.4055313   -3355.6454    300.79207    683.78293     1.009425       0.4525 
  906000    3200.3566    -4035.507    5.7321939   -3371.9598    303.69261    1636.6289   0.97915072        0.453 
  907000    3203.8038   -4035.9681     6.121823   -3348.0538    314.76227   -689.69695    1.0030172       0.4535 
  908000    3207.1989   -4037.0535    5.7570284   -3372.3562    304.21215   -1108.7974   0.98972362        0.454 
  909000    3210.6248   -4013.1553    8.7582104    -3356.671    299.03489    -361.4301   0.98296906       0.4545 
  910000    3214.0058   -3952.8805    4.0306002   -3300.0428    299.53396    600.38747   0.98593361        0.455 
  911000    3217.4528   -4026.1628    5.2278516   -3359.5593    305.33645    2176.3156   0.98873176       0.4555 
  912000    3220.8744   -3961.9916    5.7809996   -3324.3746    291.69892    246.42851   0.97059124        0.456 
  913000    3224.3433   -3985.8485    3.4829938   -3342.8626    295.23847   -445.39088   0.97840809       0.4565 
  914000    3227.8204   -3995.4945    5.5009264   -3363.4659    289.24821   -885.02767   0.98242648        0.457 
  915000    3231.2597   -4041.9881    5.1648564   -3357.2933     313.7177   -763.48574   0.98855965       0.4575 
  916000    3234.6732    -4044.141    5.1185662   -3374.4151    306.82843    488.86009   0.99328491        0.458 
  917000    3238.0901   -4026.1714    4.3321617   -3374.3053    298.94617    2060.0637    1.0170475       0.4585 
  918000    3241.5585   -4036.7122    5.1361195   -3338.0142    320.19583   -1644.7678   0.98835539        0.459 
  919000    3245.0372   -4011.3616    3.8932971   -3303.6063    324.95103   -125.51213    0.9836443       0.4595 
  920000    3248.4396   -4052.5343    5.1396271   -3382.6447    306.89425   -504.81289   0.97592987         0.46 
  921000    3252.1962   -3988.6002    5.0051546   -3360.0824    287.85629    48.897589   0.99188301       0.4605 
  922000     3256.045   -3993.8616    4.8973887   -3358.9637    290.85151   -628.88352   0.99779141        0.461 
  923000    3259.8994   -4007.7433    4.1684638   -3365.8686    294.40901   -1209.3402   0.98240745       0.4615 
  924000    3263.7042   -4011.0695    4.8569493   -3358.4955    299.03073   -346.30075   0.99086502        0.462 
  925000    3267.4626   -4037.4026    5.0982298   -3409.5925    287.48659    838.51754    1.0115512       0.4625 
  926000    3271.2229   -3936.8112    4.7356389   -3287.9806    297.35849    492.90163   0.99253917        0.463 
  927000    3274.9945    -4035.763    6.9332561   -3387.5725    296.04839    1584.7741    1.0113305       0.4635 
  928000     3278.805   -4088.5976    4.8148131   -3432.0139    300.90131    532.16805    1.0055831        0.464 
  929000    3282.5529   -4049.2767    5.4264741   -3392.1243    300.88151    -502.1567    1.0021757       0.4645 
  930000    3286.3089   -3987.6087    9.9064975   -3301.2271    312.30739    360.33515   0.98826656        0.465 
  931000    3290.0231   -3957.6014    11.007115   -3308.8058      294.447   -1271.7288   0.96624664       0.4655 
  932000    3293.7315   -3989.6646    8.0173722    -3338.646    296.85356   -919.25193   0.98242543        0.466 
  933000    3297.4789   -4004.2562     7.983511   -3343.4749    301.37632    552.01363   0.98024575       0.4665 
  934000    3301.2285   -4047.8803    8.9547079   -3385.9946    301.43782   -447.22045   0.97636185        0.467 
  935000    3304.9901   -4013.4042    3.7996848   -3356.6523    301.44763   -463.24466    1.0175018       0.4675 
  936000    3308.8102   -4048.6505    5.9968301   -3406.9356    293.49115    372.26576     1.012693        0.468 
  937000    3312.5467   -4025.2466    5.3727438   -3379.7998    295.50217   -429.55361    1.0007003       0.4685 
  938000    3316.2839   -4002.2547    2.7537435   -3368.5689    291.28159   -1204.0481   0.97895756        0.469 
  939000    3320.0198   -3977.1481    8.1941025   -3351.1515    285.22009    192.09615   0.98099512       0.4695 
  940000    3323.7812   -4017.8406    4.7666031   -3353.4723     304.5175   -368.75142    1.0025709         0.47 
  941000    3327.5261   -3999.9456    4.8532785   -3357.6146    294.30352    549.18999   0.97932416       0.4705 
  942000    3331.2648    -3968.072     4.476186   -3307.2592     303.0101     429.3159   0.99891211        0.471 
  943000    3335.0292   -4008.5505    4.5159849   -3365.1002    294.97596    713.69496    1.0148787       0.4715 
  944000    3338.8629   -4025.3938    5.0973355   -3363.8828    303.04563    -791.3689   0.99475459        0.472 
  945000    3342.6698   -3942.3415    4.9793706   -3278.1492      304.338   -166.97109   0.99338593       0.4725 
  946000    3346.3503    -4026.226    3.9353457   -3409.1728    283.05736   -1348.1323   0.98841957        0.473 
  947000     3350.122   -3993.3833    5.6124657   -3368.1784    286.04644    -27.37641   0.99421367       0.4735 
  948000    3353.8151   -3984.2961    7.8352905   -3341.4305    293.17365    440.33764    1.0148012        0.474 
  949000    3357.4895   -4009.7852    6.7859351   -3337.0679    307.43972    1271.0008    1.0088089       0.4745 
  950000    3361.0972   -4027.7834    5.4080977    -3384.402    294.53231    259.71552   0.99094077        0.475 
  951000    3364.7025   -4041.0315    5.5326579   -3426.8431    280.99736   -350.11594   0.97606511       0.4755 
  952000    3368.2718   -4043.1167    4.5002031   -3398.8073    295.37989    148.65566   0.99195993        0.476 
  953000    3372.0348     -3997.41     3.531985   -3344.4359    299.82709    710.62005   0.99597915       0.4765 
  954000    3375.8065   -3987.6069    5.7491837   -3355.3858    289.22252   -1068.8203   0.97774877        0.477 
  955000    3379.5658   -3970.0119    5.9705094   -3295.7771    308.51671    1225.1239    0.9946821       0.4775 
  956000    3383.3219   -4008.0332    3.0510229   -3364.0369     295.9044   -370.78569    1.0074207        0.478 
  957000    3387.0929   -3960.8706    5.6360738   -3320.5187    293.02845    572.30765   0.97343323       0.4785 
  958000     3390.809   -4039.9459    3.6875495   -3371.8788    306.72329    457.76057    1.0017945        0.479 
  959000    3394.6375   -3952.8077     4.339215   -3276.3851     310.2799    797.81923    1.0030833       0.4795 
  960000    3398.4536   -3983.8244     5.737992   -3335.7849    296.53055   -1454.4273    1.0025365         0.48 
  961000    3402.2969   -4035.5966    3.1516087   -3399.9622     291.9975    428.77498     1.019851       0.4805 
  962000    3406.0856    -3990.735     3.753401   -3357.6026     290.5646    832.73572   0.99279479        0.481 
  963000    3409.8908   -4004.7749    5.4510743    -3333.565    307.36004   -871.48604   0.99256764       0.4815 
  964000    3413.7648   -3974.6327    6.1546653   -3316.9236    300.80231   -10.045596      1.00488        0.482 
  965000    3417.5283    -3982.581    5.3803395   -3357.3233    286.17799    -246.7765   0.98221998       0.4825 
  966000    3421.2436   -3951.0768    3.5992902   -3285.8517    305.45195   -125.39334   0.99026507        0.483 
  967000    3424.9866   -4026.8489    4.6862216   -3355.8503     307.6156   -795.05464   0.98245245       0.4835 
  968000     3428.748   -4027.6001    4.5382653   -3419.8667    278.47634    501.10813    1.0061408        0.484 
  969000    3432.4833   -4009.9862    4.8231005   -3346.3993    304.13065   -364.59521   0.98697406       0.4845 
  970000    3435.7342   -3954.2702    11.061428   -3321.8662    286.85441     163.4725   0.95672582        0.485 
  971000    3438.5788   -3992.6854    6.8345784   -3331.8883    301.91404   -775.05115   0.97103418       0.4855 
  972000    3441.9579   -4027.4886    4.3095549   -3361.8449    305.31728    -868.6339   0.99784317        0.486 
  973000    3445.6178    -3993.694    6.2522691   -3354.7219      292.107   -348.93684    0.9790932       0.4865 
  974000    3449.2676   -3973.0228    5.8587219   -3341.4197    288.88661   -622.48811   0.99852857        0.487 
  975000    3453.0132   -4008.0799    7.6092872   -3334.3425     307.5305    570.40637   0.99141182       0.4875 
  976000    3456.7353   -4011.3255    4.8094684   -3362.3426    297.39472   -169.56971    1.0117352        0.488 
  977000    3460.4835   -3984.2802    2.9478553   -3347.4747    292.63227    62.129799    1.0002569       0.4885 
  978000    3464.2441   -4029.8876    5.0815242   -3374.2949    300.32069   -802.74702    1.0113968        0.489 
  979000    3467.8606     -4084.63    5.6005071   -3428.6194    300.27401    1269.5049    1.0061445       0.4895 
  980000    3471.5064    -4048.338    4.5639108   -3408.4462    293.31102    805.29863   0.97889721         0.49 
  981000     3475.132   -4027.3665    6.4380839   -3367.6283    301.60819    1333.5829   0.99598855       0.4905 
  982000    3478.7664   -4053.7333    6.4173026   -3381.1941    307.52761   -281.92586   0.99109178        0.491 
  983000    3482.1775    -4002.561    6.4207459   -3341.7109    302.12957    442.16763   0.99963213       0.4915 
  984000    3484.8603     -3987.13    7.0562815   -3315.5211    306.80317    197.63736   0.99459009        0.492 
  985000    3488.5949   -3982.1807    6.4368581    -3300.489    311.74402    122.99766   0.98917557       0.4925 
  986000    3492.2895   -4016.1448    5.6452927   -3330.9016    313.74911    617.05523   0.97561174        0.493 
  987000    3496.0087   -4016.2758    4.3112302   -3310.7651    323.72187     403.7125   0.97001372       0.4935 
  988000    3499.7782   -4051.8859    3.5764385   -3380.3248    308.38764    620.31548   0.99601504        0.494 
  989000    3503.5424   -3994.3451    5.2162647    -3327.157    305.61169    1279.2949    0.9917989       0.4945 
  990000    3506.3544   -3937.8722    3.7506487   -3291.4207    296.71492    340.73694   0.96501724        0.495 
  991000    3510.0236   -4001.9301    4.1237621   -3336.8319    305.15125   -387.71586   0.98129982       0.4955 
  992000    3513.6075   -3979.9171    4.0626313   -3325.9483    300.04135   -192.50485     0.983912        0.496 
  993000    3517.3612   -4016.8898    3.2148602   -3382.4456    291.41884   -1172.8365   0.98754688       0.4965 
  994000    3521.1732   -4008.0101    3.4479768    -3362.768    296.29629    1072.1291   0.98992143        0.497 
  995000    3524.9243   -3977.0739    5.1464552   -3339.2329    292.09529   -1333.2282   0.97677867       0.4975 
  996000    3528.6247   -3937.6008    3.9964933   -3279.9573     301.7684    64.843417    1.0018953        0.498 
  997000    3532.4033    -4025.622    4.5884588   -3417.7988    278.49463    469.49286    1.0155769       0.4985 
  998000    3536.1787   -3946.0974    6.6523102   -3267.0113    310.44168   -235.29082   0.98331708        0.499 
  999000    3539.9287   -4010.7271    3.9576948   -3336.0689    309.64147   -527.56581   0.97148532       0.4995 
 1000000    3543.6913    -3964.075    5.9002325   -3283.0229    311.69649   -330.47353   0.97553352          0.5 
 1001000     3547.047   -3981.6014    4.1704831   -3325.3923    301.02587    201.27469   0.96666954       0.5005 
 1002000    3550.3637   -4006.6332    4.8683515   -3285.4709    330.69049    485.53441   0.96062317        0.501 
 1003000    3553.6857   -3977.0812    6.0664183   -3351.1861    286.15551    28.095413   0.97417309       0.5015 
 1004000    3556.7225   -3936.2356    4.3333127   -3332.3726    276.78411    458.33736   0.98839856        0.502 
 1005000    3560.0604   -3915.9286    3.7574858   -3283.6813    290.15412    1010.3254    1.0096514       0.5025 
 1006000    3563.4883   -3999.0659    3.8314484   -3333.1563    305.66075    -1516.238   0.98415308        0.503 
 1007000    3566.9215   -4007.1124    4.6163098   -3363.1639     295.1597    265.04789   0.99797442       0.5035 
 1008000    3569.7115   -3998.0063    4.9502671   -3361.0592    291.77319    73.965465    1.0194878        0.504 
 1009000    3573.1481   -3957.4521    4.1914199    -3258.296    320.84346   -478.36442   0.98353842       0.5045 
 1010000    3576.3909   -3984.5278    6.8798759   -3368.4203    281.26136     306.0866   0.99489208        0.505 
 1011000     3579.822   -3984.8987    8.1228276   -3322.8549    301.89487   -601.07086    1.0097206       0.5055 
 1012000    3583.0617   -3988.8382    3.6402636   -3384.5035    277.32181   -70.061142    1.0020528        0.506 
 1013000    3586.5298   -4021.0838    4.1140633   -3370.7039    298.36074   -1538.3228   0.99875938       0.5065 
 1014000    3590.0521   -4029.4465    3.4202205   -3397.6853    290.08536   -1248.4669    1.0116344        0.507 
 1015000    3593.5129   -4020.6701    5.3926783   -3344.3587    309.74218    -245.8934   0.99483166       0.5075 
 1016000    3596.9634   -3979.4067    5.7167779   -3333.3549    295.62266    471.41263   0.98620328        0.508 
 1017000    3600.4958   -4004.9023    7.8316223   -3332.8637     306.6436    833.53557    1.0083855       0.5085 
 1018000    3604.0513   -4012.5221    6.7914397   -3349.6151    302.90804   -196.01735   0.99718896        0.509 
 1019000    3607.5645   -3968.2242    9.2367433   -3294.6555    306.70129    321.56998    1.0036641       0.5095 
 1020000    3611.0956   -3967.0984    6.8550769   -3323.2138    294.09662   -98.645037   0.98029441         0.51 
 1021000    3614.9967   -4000.9986    5.8234422   -3370.3619    288.45676    116.41573    1.0028706       0.5105 
 1022000    3618.1437   -3967.0247    8.6482212   -3285.6467    310.57831   -532.98991   0.97560714        0.511 
 1023000    3622.1356   -4004.7129    6.5659901   -3316.8867    314.51655    960.10377   0.97826525       0.5115 
 1024000    3625.9294   -3996.8352    5.9938559   -3346.9271    297.27507    553.01401   0.97967227        0.512 
 1025000    3629.7754   -4019.9121    6.8940454   -3359.6652    301.63259    854.81134   0.98208149       0.5125 
 1026000    3633.6295   -4003.9261    4.5464283    -3346.284    301.51386   -59.490884   0.98055021        0.513 
 1027000     3637.462    -4005.378    4.1402812   -3372.1075    290.44974   -88.015253   0.98264146       0.5135 
 1028000     3641.228   -3971.4181    4.4020259    -3319.183    299.08428    1402.2535   0.99872243        0.514 
 1029000     3645.069   -3935.6234     6.962216   -3260.0468    308.67833   -828.12806   0.97439063       0.5145 
 1030000    3648.8902   -4012.4984    4.8878047   -3330.0672    312.80059    147.46883     0.981002        0.515 
 1031000    3652.7517   -4025.2386    6.3492567   -3367.5919    300.68367    164.24759    0.9895885       0.5155 
 1032000    3656.6013   -3935.5665    3.6649158   -3293.7155    294.63055   -957.11056   0.96453053        0.516 
 1033000    3660.3025   -4039.4861    6.2107917   -3428.4467    279.23045    331.96064   0.99556813       0.5165 
 1034000    3663.8775   -3969.7895     6.629331   -3285.1924    312.99652    616.43587   0.97894464        0.517 
 1035000    3667.5211   -3968.6891    4.0329117   -3351.2171    283.20566     352.7456   0.98721852       0.5175 
 1036000    3671.1139   -4043.4094    5.4128059   -3410.7238    289.59223    92.504316    0.9931133        0.518 
 1037000     3674.837   -3969.1027    5.4274456   -3319.2813    297.49654     1033.754   0.99493788       0.5185 
 1038000     3678.419   -3986.5436     5.454068   -3359.6617    286.89378   -1395.8714   0.98526437        0.519 
 1039000     3681.999   -4016.5293    4.1549991   -3358.8518    301.71091   -572.18203   0.97392657       0.5195 
 1040000    3685.4364    -4001.751    5.4498976   -3334.7504    305.41724     1525.882    1.0130977         0.52 
 1041000    3689.0824   -4027.0053    3.0071997   -3358.9222    307.04475    -1461.964   0.97161891       0.5205 
 1042000    3692.6116   -3964.4957    6.1172501   -3326.2324    291.84205   -706.55794   0.98230716        0.521 
 1043000    3696.2483   -3999.6868    2.9664806    -3331.262    307.22129    399.80527   0.97569208       0.5215 
 1044000    3699.7794   -3972.3227    6.5166245   -3350.1341    284.23651   -742.44865   0.97430792        0.522 
 1045000    3703.5822   -3977.7117    5.8342815   -3332.8695    295.00998   -901.21604     0.986439       0.5225 
 1046000    3707.2808   -3969.3159    5.7561572   -3298.3113    307.12441   -175.67934   0.97591858        0.523 
 1047000    3711.0882   -3949.3529    5.3533135   -3298.4775    298.01734   -586.59079   0.98295652       0.5235 
 1048000    3714.6835    -4023.992     5.098646   -3344.4294    311.37891    410.51416   0.99368416        0.524 
 1049000     3718.033   -4039.4351    9.0371769   -3386.5952    297.22359     132.6799   0.99287094       0.5245 
 1050000     3720.419   -4058.9953     9.432374   -3382.4958    307.96402   -78.213737   0.98206266        0.525 
 1051000     3724.105   -3972.2479    8.4627302   -3320.7725    296.85884   -34.733889    1.0075444       0.5255 
 1052000    3728.0312   -4017.9432    5.5966767   -3350.1702     305.7061    2.3588228    0.9942514        0.526 
 1053000    3731.4661   -4014.1398    6.0461823   -3358.5883    299.85626    448.73342   0.98679616       0.5265 
 1054000    3734.9131   -3951.3477     3.697686   -3294.9398     301.3359    25.421016   0.98464257        0.527 
 1055000    3738.7901   -3966.7492    5.1252719   -3322.0309     295.2801   -1250.8739   0.97417227       0.5275 
 1056000    3742.5748   -4005.8204    6.5268147   -3351.6564    298.99384   -648.41006   0.97940056        0.528 
 1057000    3746.3728   -3949.7702    10.045175    -3288.287    300.74857    600.79973   0.97331305       0.5285 
 1058000    3750.1938   -4021.4093    3.9123919    -3360.467    303.33016   -18.649685   0.99759015        0.529 
 1059000    3754.0386    -4016.968     4.112164   -3367.7709    297.81556   -223.30536   0.99706997       0.5295 
 1060000    3757.9927   -4003.9817    6.1225701   -3366.3409     291.5522    894.01318    1.0113174         0.53 
 1061000    3761.8753    -3981.935    3.7095742   -3288.3326    318.50195    318.83333   0.99527643       0.5305 
 1062000    3764.7117   -3995.3263    6.3273014    -3328.637    304.86848     -788.922   0.99969183        0.531 
 1063000    3767.1237   -4009.7614    5.2747578   -3361.2023    296.98427     239.5871     1.004357       0.5315 
 1064000    3770.8821    -3973.161    5.9336235    -3316.573    300.38677   -919.42696   0.98486208        0.532 
 1065000    3774.7205   -3952.4086    6.3924905   -3299.7834    298.34543    536.62476    1.0065001       0.5325 
 1066000    3778.5012   -3982.4476      6.48661   -3381.4382    274.47262    -519.4112   0.98294979        0.533 
 1067000    3782.3704   -4022.1894    7.1681767   -3408.8366    279.85647   -827.62058   0.99648038       0.5335 
 1068000    3786.2103   -3960.3505    7.0022912   -3300.3508    301.46848    15.227092   0.99898069        0.534 
 1069000    3790.0372   -3970.6356     5.805573   -3321.8388    296.84893   -917.23124   0.98029723       0.5345 
 1070000    3793.8475   -3987.8855    6.1340556   -3319.4939    305.74356    203.86058   0.99289874        0.535 
 1071000    3797.4873   -4049.2784      6.73576   -3378.9142    306.37652    85.074119   0.98264184       0.5355 
 1072000    3800.5184   -3973.9011    5.1392356   -3329.1317    295.29723   -1090.3138   0.99482712        0.536 
 1073000    3804.0969    -4045.872     7.064279   -3402.7452    293.65017    328.77827   0.97694779       0.5365 
 1074000    3807.5973   -4038.5683    6.2761468   -3420.6411    282.38016   -192.00034   0.99698629        0.537 
 1075000    3811.4669   -3977.1785    6.0963113   -3325.4499    298.06824    530.14335   0.99251465       0.5375 
 1076000    3815.3486   -3946.4629    6.1008713    -3302.874    294.30832   -190.64059   0.97557193        0.538 
 1077000    3819.1153   -4032.8227    6.4556295   -3356.2344     309.3793    325.45862   0.99697508       0.5385 
 1078000    3822.8976   -3957.7222    5.9307791   -3323.1972    290.20229   -221.32592   0.98914884        0.539 
 1079000    3826.7255   -3986.6892    5.9552847   -3355.5909    288.60899    652.35036     1.007322       0.5395 
 1080000     3830.714   -3968.4945     5.349386   -3311.7344    300.73596   -582.55307   0.99416453         0.54 
 1081000    3834.5142   -4009.5792    6.8959208   -3373.4164    290.51283   -102.73672   0.97683161       0.5405 
 1082000    3838.3029   -3984.6749    4.7042659   -3369.6661    281.75856   -444.42999   0.98703027        0.541 
 1083000    3842.0631   -3997.4392    2.7982492   -3331.2963    306.24547   -158.63146   0.99882657       0.5415 
 1084000    3845.8425   -3970.4726     7.148808     -3318.11    297.87503    238.55144      1.00297        0.542 
 1085000    3849.6884   -3975.8739    4.9597176   -3302.1492    308.74791    93.258504   0.98249858       0.5425 
 1086000     3853.558   -3933.1277    7.3593799   -3240.4556    316.38741     1207.652   0.98529573        0.543 
 1087000    3857.4426   -4026.3328    5.7528328   -3380.5996    295.45893   -668.20627    0.9722503       0.5435 
 1088000    3861.3054   -4020.1415    5.2424457   -3377.9167     294.0748    575.02284    1.0074676        0.544 
 1089000    3865.1426   -4069.0759     5.858246   -3434.3869    290.31148   -978.08351   0.98397806       0.5445 
 1090000    3868.4637   -3985.4704    5.4040075   -3344.7775    293.29301    258.73921   0.99098768        0.545 
 1091000    3872.2222   -4014.7105    4.1386406   -3406.5205    278.87161    -549.3035   0.97728238       0.5455 
 1092000    3876.1525   -3960.1488    5.2704821   -3339.2916    284.19714   -487.36493   0.98746037        0.546 
 1093000    3880.0855   -4044.1762    4.4004294   -3369.3863    309.49783    360.25776   0.99866773       0.5465 
 1094000    3884.1327   -4001.6665    3.9102663     -3366.54    291.41279   -222.96997   0.98900635        0.547 
 1095000    3888.0541   -4046.8146    4.9360161   -3359.2178    315.16314     98.13469   0.98234334       0.5475 
 1096000     3891.999   -4037.8903     5.737709   -3366.4249    307.34564    718.98372   0.99056439        0.548 
 1097000    3895.8841   -4040.0196    4.9272784   -3394.8271    295.59044   -35.128073   0.98706865       0.5485 
 1098000    3899.7454   -4016.2103     3.540319   -3347.5669    307.05731   -745.80193   0.98538163        0.549 
 1099000    3903.2834   -4063.2885    6.8300083   -3388.3326    308.45281    328.37431   0.99167901       0.5495 
 1100000    3906.7838   -4064.1404    6.2163231   -3410.1845    299.04112   -236.15926   0.98805926         0.55 
 1101000    3910.0372   -4067.7481    3.9937516   -3441.0463    287.48486   -844.79037   0.97649772       0.5505 
 1102000    3913.2336   -4062.9464    7.5701811   -3442.2471    283.06254   -340.05665    1.0104127        0.551 
 1103000    3916.7631   -4034.0499    5.3152074    -3366.963    305.51927   -448.44705   0.99959643       0.5515 
 1104000    3920.2555   -4013.9194     5.131204   -3352.2204    303.11683   -300.23214     1.000227        0.552 
 1105000    3923.4613   -4040.1851    6.9195033   -3403.3453     290.8145   -553.26585    0.9966947       0.5525 
 1106000    3926.9222   -4027.5637    3.7851642   -3362.3913    305.34183   -291.99756    1.0124569        0.553 
 1107000    3930.3008   -3994.6946    7.4585405    -3335.282    300.98681    1513.3055    1.0170128       0.5535 
 1108000    3933.5907   -4006.7748    6.1901498   -3322.0438    313.26108   -191.49179   0.98467263        0.554 
 1109000    3936.9074   -3967.9939     6.062395   -3311.6877    300.19721    229.59744    1.0017021       0.5545 
 1110000    3940.2346   -4007.8736    9.0782036   -3377.1046    287.01522   -388.80297    1.0044103        0.555 
 1111000    3943.5733   -3984.6715    5.2472007    -3299.103    314.08305   -1198.3666   0.99524655       0.5555 
 1112000    3946.9433   -4025.1535     7.667696   -3359.0454    303.98132    73.523355    1.0054917        0.556 
 1113000    3950.2249   -4074.4957    6.4670991   -3410.0254    303.77952    1404.4528   0.97957424       0.5565 
 1114000     3953.517   -4000.3375    4.6624501   -3326.2058    309.07303    675.50189    0.9981263        0.557 
 1115000    3956.7958   -3982.1305    7.5018643   -3310.7947    306.47134   -203.98837   0.98398843       0.5575 
 1116000    3960.1187   -4068.2953    5.8639007    -3397.877    306.80396    77.293105   0.97383645        0.558 
 1117000    3963.3966   -3962.4428    9.9075882   -3308.0285    297.54859   -170.66278    0.9745478       0.5585 
 1118000     3966.642    -4059.265    5.7441524   -3399.7001     301.8486   -1167.4947   0.97227733        0.559 
 1119000    3969.9784   -3972.5037     6.766147   -3319.3567    298.41382    1026.9494    1.0141753       0.5595 
 1120000    3973.2497   -4029.5741    6.0604073    -3387.332    293.70516    834.62423   0.98928226         0.56 
 1121000    3977.0493   -3986.4001    9.8140626    -3305.353    309.88729    809.50503    1.0147618       0.5605 
 1122000     3980.961   -4001.8755    8.3399829   -3374.2671    285.89688    418.47812    1.0017586        0.561 
 1123000    3984.7529   -4030.9017    9.1048966   -3377.6018    297.40468   -227.93589   0.99864965       0.5615 
 1124000    3988.5907   -3996.8584    7.5015902   -3325.8732    306.30963     253.1512   0.99979043        0.562 
 1125000    3992.3942    -4030.128    7.5004619   -3401.2256    286.88182   -1484.7137   0.98578003       0.5625 
 1126000    3996.2595   -4008.2767    9.3718849   -3375.0423    288.01781   -902.69064   0.99454945        0.563 
 1127000    4000.2217   -4035.4891    7.7136853   -3407.1144    286.53979    222.00369   0.98807092       0.5635 
 1128000    4004.2209    -4017.242    9.1930636   -3363.8378    297.41214   -516.80096   0.99580177        0.564 
 1129000    4008.0746   -4028.3734    9.1881811   -3359.7465     304.4422   -907.22297   0.99621915       0.5645 
 1130000    4011.9304   -4024.4762    7.9537034   -3367.7194    299.53208   -446.58332   0.99434838        0.565 
 1131000    4015.8115   -3983.4489    8.9930836   -3328.6625    298.14256    1170.5745   0.98437437       0.5655 
 1132000    4019.7709   -4010.3181    11.250725   -3350.8188    299.27609   -624.74944    1.0055368        0.566 
 1133000     4023.764   -3997.8057    10.873834   -3359.9588    289.45383    1062.7606   0.99522786       0.5665 
 1134000    4027.7745   -3972.0145    8.1905088   -3302.5899    305.27114    724.71354   0.99099498        0.567 
 1135000    4031.5701   -4020.5533    9.2394514   -3394.5925    284.72096    437.92032    0.9853898       0.5675 
 1136000    4035.4558   -4043.2203    6.2831255   -3393.2647    297.16345    569.73704    1.0067797        0.568 
 1137000     4039.371   -4026.0764    6.8617294   -3379.7471    295.22216   -961.30576    1.0035698       0.5685 
 1138000    4043.1956   -4005.8355    5.8114325   -3336.6266    306.26989   -710.03172   0.99727404        0.569 
 1139000    4046.8931   -3996.7215    4.6735915   -3341.2351    300.45996   -13.246017   0.97650137       0.5695 
 1140000    4050.6418   -3943.4791    6.4427344   -3272.5074    306.79225    647.01462   0.97874667         0.57 
 1141000    4054.4074   -3986.1838     9.906743   -3338.2566    294.55407   -975.83898   0.97992783       0.5705 
 1142000    4058.1796   -4070.1295    5.5894708   -3416.6835    299.09512    287.49072   0.99573908        0.571 
 1143000    4061.9628   -4039.4338    8.3045384   -3391.2345     295.4194    370.79928    0.9865414       0.5715 
 1144000    4065.6946   -4028.3092    8.9414561   -3366.7105    301.31142   -122.06785    1.0047157        0.572 
 1145000     4069.401   -4014.8621    3.4038807   -3406.3912     279.3405    842.25591   0.97315123       0.5725 
 1146000    4073.1674   -3968.9053     7.147348   -3318.6615    296.89752   -1000.2339   0.96108399        0.573 
 1147000    4076.9064   -3967.6419    7.9743388    -3291.659    308.39868   -854.15822   0.97420548       0.5735 
 1148000    4080.6506   -3995.1668    9.7710777   -3372.2872    283.05304   -416.85612   0.98239283        0.574 
 1149000    4084.4191   -3995.8013    9.3537042   -3312.0211    311.36161    514.56468   0.98668828       0.5745 
 1150000    4088.2094    -4007.467    10.244956   -3359.3207    294.49911    986.00716   0.99425399        0.575 
 1151000    4092.0661   -4014.9389     9.178039   -3342.6433    306.14066   -10.257562   0.98437144       0.5755 
 1152000    4095.8709   -4028.1354    6.0632762   -3363.0388    304.25507    911.95563    1.0241989        0.576 
 1153000     4099.738   -4032.0677    7.1265916   -3358.4537    307.69637    73.813553   0.99873415       0.5765 
 1154000     4103.543   -3945.3219    8.6382612   -3295.1313    296.18463    1094.7115    0.9767019        0.577 
 1155000    4107.3971   -4002.3695    7.5527672   -3338.6027    302.95351   -409.25767   0.96291084       0.5775 
 1156000    4111.2574   -3996.3242    11.194609   -3325.2484    304.64652    251.71431   0.97466744        0.578 
 1157000    4115.1468   -4027.4447    7.6538454   -3360.5637    304.34454   -815.81832   0.95945052       0.5785 
 1158000    4118.8783   -3996.5888    8.7074258   -3313.2372    311.46216    675.33969   0.97697493        0.579 
 1159000    4122.7378   -3931.2887    5.9547579   -3222.7542    324.35907   -1208.7817   0.96433872       0.5795 
 1160000    4126.5215   -4027.2796    7.5868187   -3336.4039    315.45311   -105.84801   0.99641272         0.58 
 1161000    4130.3017   -3958.1229    8.4168529   -3293.2889    303.04723     229.1353   0.97770463       0.5805 
 1162000    4134.0192   -4030.4553    6.2815509   -3390.2767    292.65045    218.17217    0.9974189        0.581 
 1163000    4137.8317    -3967.395    6.3712683   -3309.5197    300.77906   -1963.6193   0.97808608       0.5815 
 1164000    4141.5535   -3959.8977     5.343076   -3295.7418    304.15325   -540.88654   0.96392788        0.582 
 1165000    4145.2825   -3990.0022    7.8206065   -3309.0048    310.78467    555.60619   0.99600276       0.5825 
 1166000    4149.0492   -3966.0213     10.66329   -3312.7105    296.69026    91.676013    0.9792546        0.583 
 1167000    4152.8149   -3970.1925    8.0347794   -3301.0001     305.2358    732.80451    1.0033933       0.5835 
 1168000    4156.4184    -4039.807    8.4336494   -3398.8022     292.0383   -542.31052    1.0098029        0.584 
 1169000    4160.0448   -4001.8931    6.7625151   -3334.1089    305.17308    234.70903   0.98188723       0.5845 
 1170000    4163.5572   -3988.3269    2.8078183   -3307.1135    313.19863    768.55524   0.99627814        0.585 
 1171000     4167.356   -3999.7623    6.6532363   -3365.0916    289.93605   -179.15307    0.9831189       0.5855 
 1172000    4171.2517   -4020.6625    5.3438441   -3372.9326    296.56958    552.94771    1.0086875        0.586 
 1173000    4175.1044   -4001.0765    7.3202612    -3300.733    319.94717   -1073.4065    1.0010045       0.5865 
 1174000     4178.625    -4012.073    7.0982898    -3339.079    307.42323   -156.65605    1.0035021        0.587 
 1175000    4182.3903   -4030.7613    9.2387638   -3368.6245    301.42263     -1050.67   0.97481396       0.5875 
 1176000    4186.2462   -4031.2445    8.7336051   -3391.7395     291.2074    372.53765    1.0188241        0.588 
 1177000    4189.8596   -4015.0338       5.5758   -3372.7623    293.94246    551.69473   0.99981999       0.5885 
 1178000    4193.6534    -4042.552    5.1280456   -3386.3525    300.57933    125.20248    1.0069822        0.589 
 1179000    4196.6065   -4059.2737    8.3099454   -3397.1779    301.83247     635.0918    1.0082535       0.5895 
 1180000    4199.5307   -4025.2412    4.9585119   -3347.3866    310.65509   -4.1426536   0.98172972         0.59 
 1181000    4203.0496   -4045.3538     8.775062   -3399.2853    294.21842   -95.626715    0.9696062       0.5905 
 1182000    4206.4996   -4028.3848      8.72866   -3337.7521    314.81378   -1482.6678   0.96862934        0.591 
 1183000    4209.2916   -4016.7077    5.7027124   -3376.9359    292.72988   -326.78021   0.99499973       0.5915 
 1184000    4212.8376   -3939.3813    10.614442   -3281.4886    298.82811   -607.36594   0.96976903        0.592 
 1185000    4216.1831   -3985.7848    5.3100027   -3308.3634    310.29283   -200.95031   0.97136175       0.5925 
 1186000    4219.6605   -3985.3828    5.7249667   -3329.8191    300.01021   -467.05607   0.97737459        0.593 
 1187000    4222.2555   -4013.4812    6.2476728   -3386.3977    286.62048    529.47876   0.96423259       0.5935 
 1188000    4225.6815   -4031.5294     8.682206   -3366.2565     303.1274    769.06054    1.0018161        0.594 
 1189000    4229.4825   -3939.9245    8.1764651   -3284.6608    298.73995   -582.83553   0.97546544       0.5945 
 1190000    4233.2704   -4002.5686    5.1425519   -3325.5998    310.16118    241.91277   0.98724111        0.595 
 1191000    4237.0342   -4012.7749    4.9707357   -3345.3865    305.81753    681.74205     1.002209       0.5955 
 1192000    4240.8107   -3994.1278    8.1446527   -3358.0047    289.91804    953.60051   0.98241026        0.596 
 1193000    4244.5799   -3969.7071    5.0799697   -3317.3776    298.81487   -87.489363   0.98247609       0.5965 
 1194000    4248.3701   -4021.7744    7.1236842   -3388.0485    289.28263    1655.2534    1.0094844        0.597 
 1195000    4252.2252   -4044.6974     4.926176   -3424.2346      284.174    210.62585    0.9933872       0.5975 
 1196000    4255.9939    -4008.145    5.8613868   -3375.1604    289.52316   -882.50346   0.97585778        0.598 
 1197000    4259.7266   -4003.4694    3.6770118    -3344.297    302.62176   -510.95653   0.98307933       0.5985 
 1198000    4263.5041   -4031.2507    7.0656742   -3392.3115    291.71627   -162.76341   0.98961052        0.599 
 1199000    4267.2407   -4028.9814    8.1885359   -3366.7937    301.93095    1022.1789    1.0042165       0.5995 
 1200000    4271.0952   -3968.8207    6.1228306   -3289.6578    310.72157    973.69897    1.0029608          0.6 
 1201000    4274.1478   -3988.1286    4.1009725   -3332.9545    300.58009   -216.58088    0.9994778       0.6005 
 1202000    4276.6304   -4024.9888    8.0121187   -3335.2709    314.72226   -203.82346   0.98363018        0.601 
 1203000    4278.7423   -3978.6833    5.8282255   -3330.5434     296.5352     776.5131    1.0014002       0.6015 
 1204000    4281.5177   -3977.5991    5.5727939   -3320.3752    300.84692   -359.09731   0.99959681        0.602 
 1205000    4284.9758   -3965.1132    9.7436823   -3315.9081    295.21934   -1077.6849   0.99298807       0.6025 
 1206000    4288.3447   -4031.6699    4.4231358    -3392.475    293.05429    115.22671    1.0015257        0.603 
 1207000    4291.7904   -4010.1335    4.3060351   -3329.0844    312.43113    108.96636    1.0067108       0.6035 
 1208000    4295.2214   -4009.4998    7.6417654   -3354.0705    299.06323   -177.77518    0.9934614        0.604 
 1209000    4298.7076   -3979.4544    5.2483275   -3318.7606    302.59867    1013.6246    1.0018651       0.6045 
 1210000    4302.1918   -3974.0883    4.5628651   -3349.1584    286.40403   -144.99072   0.97481902        0.605 
 1211000    4305.6366   -4019.9841    6.3239602   -3376.2881    294.25475   -595.63109   0.97069262       0.6055 
 1212000    4308.9793   -4083.0498    6.7688657   -3422.8003    301.69161   -908.80885    0.9736585        0.606 
 1213000    4312.4143   -4047.3701     8.637036    -3391.529    298.79389    8.7362321   0.98522522       0.6065 
 1214000    4315.9071   -4008.1715    6.3010753   -3343.8354    303.79419    760.28252   0.99368972        0.607 
 1215000    4319.4056    -4043.776    6.7573093   -3358.7632    313.12934    444.02737   0.98878667       0.6075 
 1216000    4322.8669   -4055.1679    7.1169568   -3379.2692    308.75559    -721.5516   0.99595615        0.608 
 1217000    4326.3223   -4039.3078    6.3646668   -3380.1569    301.37099   -697.82252    1.0002352       0.6085 
 1218000    4329.7078   -3977.1244    2.7578142   -3319.9785    302.11053    350.40872   0.98598102        0.609 
 1219000    4333.1579   -3995.0807    5.5212271   -3345.1924    297.48412   -221.17821   0.99750183       0.6095 
 1220000    4336.5436   -4037.1342    5.2862977   -3401.3567     291.0781    634.64389   0.99437346         0.61 
 1221000    4340.2112   -3976.2269    3.7510182   -3321.5506    300.51187    606.10357   0.98046787       0.6105 
 1222000    4344.0037   -3976.6486    5.4574655   -3338.7577    291.97474   -172.30823   0.97882125        0.611 
 1223000    4347.9499   -3965.9781    5.1336285   -3322.9549    294.49366     491.5566    1.0007403       0.6115 
 1224000    4351.8228   -3991.4633    1.9415059   -3305.3424    315.86424    884.15709   0.99035303        0.612 
 1225000    4355.6755   -3998.4599     5.497491   -3350.3622     296.6684    255.28542   0.99231851       0.6125 
 1226000    4359.4665    -3949.251    6.3581873   -3297.6437    297.89134    454.59578   0.98738141        0.613 
 1227000    4363.2764   -3996.6752    5.0708991   -3344.3999    298.79404   -1370.2663   0.98488085       0.6135 
 1228000    4367.1311   -4002.9742    4.2036016   -3316.2632     315.0923   -824.41084   0.98865402        0.614 
 1229000    4370.8294    -4019.186    5.3617988   -3357.4386    303.03271   -34.062805    1.0029205       0.6145 
 1230000    4374.5616   -3972.3433    3.8458661   -3333.7561    293.04022    527.45404    1.0030133        0.615 
 1231000    4378.3463   -3978.8227    3.7791448   -3336.4946    294.79812    -576.2741   0.98831838       0.6155 
 1232000    4382.1257   -3933.6967    5.2472807   -3258.6197    309.23943    693.09891    1.0031414        0.616 
 1233000     4386.089   -3958.9882    4.8956935   -3329.7279    288.24959   -439.24086   0.97011988       0.6165 
 1234000     4389.867   -3944.6365    3.1807628   -3272.9462    308.62995   -146.58354   0.97856322        0.617 
 1235000    4393.7554   -4050.8149    5.0556735   -3417.1273    290.21971    839.51176   0.99965136       0.6175 
 1236000    4397.5211   -4020.0396    5.9713627   -3372.5365    296.17511   -884.68809   0.97717139        0.618 
 1237000    4401.3572   -3981.7194    3.7503745   -3323.5772    302.11227    -687.8165   0.98226401       0.6185 
 1238000    4404.5445   -3975.5162     3.889537   -3316.0707    302.64966   -944.66045   0.96974992        0.619 
 1239000    4408.3851   -4033.0406    5.4580042   -3384.7048    296.79661    1018.9285   0.98570557       0.6195 
 1240000    4412.1906   -3945.8031    4.2782276   -3291.7438    299.98358    1290.0832   0.99554981         0.62 
 1241000    4416.1751   -4043.4588    6.9754045   -3363.2443    310.81347   -1628.1036   0.98772043       0.6205 
 1242000    4420.0621   -4029.2907    5.4754733   -3385.9078    294.50188   -1.6556902    1.0054097        0.621 
 1243000     4423.895   -3986.7873     6.322922   -3353.8382    289.29369   -704.32633    1.0068799       0.6215 
 1244000    4427.7453   -4008.9926    7.0470416   -3355.2353    298.56593   -498.54906   0.98184887        0.622 
 1245000    4431.3934   -4050.3272     6.469062   -3381.7923    305.65507   -103.35591    0.9953417       0.6225 
 1246000    4434.9737   -4020.1105    6.1813472    -3349.463    306.76323    284.32958   0.98549192        0.623 
 1247000    4438.9125   -3968.1721    7.7827297   -3301.4766    304.19945    952.75639   0.99568492       0.6235 
 1248000    4442.5916   -4012.9633    7.8712602   -3369.8265    293.28225   -862.65353   0.98125673        0.624 
 1249000     4446.108   -3985.1882    6.6760962   -3345.7337    292.13401    578.65007   0.99206723       0.6245 
 1250000    4449.5515   -4022.3229    8.1871685   -3352.4563    305.47668   -82.739313   0.98245997        0.625 
 1251000    4453.3421   -4023.7421     9.065641   -3374.3343    295.62595   -606.63395   0.98198739       0.6255 
 1252000    4457.0531   -4008.8003    7.3115535   -3349.1886    301.14655    770.21834   0.98713643        0.626 
 1253000     4461.005   -4080.2666    3.2922915   -3449.4953    289.68743   -239.34271    1.0036786       0.6265 
 1254000    4464.9518   -4043.6598    7.0260248    -3390.329    298.37869   -397.66641     0.982299        0.627 
 1255000    4468.7754   -4025.3444    7.7509288   -3374.8787    296.72132   -333.92483   0.98113767       0.6275 
 1256000    4472.5637   -3999.5333    4.8601654   -3335.6584    304.24646    457.37825   0.99856328        0.628 
 1257000     4475.312   -3988.7682    7.8559445   -3346.5268    292.87591   -1006.0375   0.98380475       0.6285 
 1258000    4477.6072   -4008.7841    5.5131894   -3345.2032    303.80928   -435.23805   0.98720324        0.629 
 1259000    4480.8817   -3993.3014    5.5156456   -3349.7621    294.55556   -91.564856   0.99248236       0.6295 
 1260000    4484.5801   -4022.5427     4.574272   -3336.9367    314.41104    362.96273   0.99052289         0.63 
 1261000    4488.4248   -3992.5622    5.2115779   -3317.3919    309.29902    -592.8333   0.97989878       0.6305 
 1262000    4492.2308   -3932.4007    4.8068022   -3323.9777    278.67071   -792.45248   0.96749393        0.631 
 1263000    4495.9176   -3968.9874    8.1496044   -3290.1631    309.62951    -328.8554    0.9773171       0.6315 
 1264000    4499.8943   -4035.0743    5.9759037   -3335.4555    320.23321   -110.81219   0.99427579        0.632 
 1265000    4503.5433   -4052.5158    4.9623684   -3373.1451    311.35323   -298.96298   0.96810056       0.6325 
 1266000    4507.3879   -4024.1461    3.5944821   -3324.4752    321.35672    114.33125    1.0103877        0.633 
 1267000    4511.1726   -4027.0225    5.0554213   -3373.7495    299.26182    975.11784    1.0208827       0.6335 
 1268000    4514.7101   -4024.1988    4.9651113   -3353.3357     307.4243  -0.25904086   0.98142436        0.634 
 1269000    4518.1937   -4035.1835     4.035938   -3395.0892    293.64823    1093.3776    1.0023441       0.6345 
 1270000    4521.9876   -4001.1582     6.448164   -3318.2599    312.29589   -245.51032    1.0003164        0.635 
 1271000    4525.8148   -3966.1719      5.05206   -3305.3414    302.75241    1524.3757     1.022745       0.6355 
 1272000    4529.6841   -4035.7456    3.3526623   -3364.7899    308.21147   -222.37497   0.99238778        0.636 
 1273000    4533.4532   -4018.2165    5.4711911   -3354.6154      303.838   -524.62524   0.97853263       0.6365 
 1274000    4537.1798   -4044.7314    6.7096467   -3378.2728    304.58548    418.06723    1.0002437        0.637 
 1275000    4540.9938   -4032.4986    2.8096269   -3352.2767    312.74006    126.69206   0.99207448       0.6375 
 1276000    4544.7435   -4011.8049    3.7829954   -3351.5795    303.05894    534.70029   0.98386613        0.638 
 1277000    4547.8069   -3968.4011     5.469608   -3350.3515    282.80904    -369.3489   0.97036595       0.6385 
 1278000    4550.1621     -3967.28    4.5431654   -3324.1831     294.8003   -1306.3895   0.96535632        0.639 
 1279000    4553.2374   -3974.3683    6.3099169   -3323.1467    297.73556   -450.07975   0.99063277       0.6395 
 1280000    4557.0619   -4005.7619    5.4725449   -3335.2443    307.03052    -1168.091   0.98050422         0.64 
 1281000    4560.6956   -4030.4866    7.9800588   -3399.6869    287.53634   -762.10206   0.98331662       0.6405 
 1282000    4564.5922   -4015.6814    6.6842265   -3347.2507    305.50769   -164.77925   0.98597647        0.641 
 1283000    4568.4032    -4000.143    5.0827167    -3337.021    303.79617    419.68236   0.97911796       0.6415 
 1284000    4571.9545   -4009.4362    4.9885328   -3332.9182    310.02418   -115.29121   0.98398284        0.642 
 1285000    4575.6521   -3936.5667    5.0467654   -3279.8572    300.85231    827.86173    1.0051403       0.6425 
 1286000    4579.6511   -3987.6478    5.3410032   -3283.3406    322.69082    328.34437   0.99005865        0.643 
 1287000    4583.3905   -3959.4218    3.3241685   -3313.9199    296.47335   -991.43703   0.97397504       0.6435 
 1288000    4587.1994   -3951.0134     5.717169   -3264.8997    314.11779    -602.2565   0.98510431        0.644 
 1289000    4590.8605   -4037.9459    5.7318196   -3364.4255    308.29712    147.88666    1.0111794       0.6445 
 1290000    4594.5806   -3996.9348    7.5455286   -3367.8243    286.95714    407.69225   0.98575282        0.645 
 1291000    4598.5001   -4056.0758    3.6687481   -3378.4211    311.15825   -88.546993    1.0131293       0.6455 
 1292000    4602.3212   -4027.4769    5.1580323   -3394.9564    289.63362    1135.4135    1.0051691        0.646 
 1293000    4606.0471   -4002.6443    4.9918628   -3357.1976    295.67794   0.22793194   0.96404212       0.6465 
 1294000    4609.7856   -3971.5461    6.8338433   -3312.8003    300.96736   -10.141058   0.98318865        0.647 
 1295000    4613.5451   -3928.8241    6.5320558   -3244.4153    312.95452    872.60044   0.99180407       0.6475 
 1296000    4617.2938   -3999.6471    5.9231111    -3354.493    295.11298   -304.90629    1.0058701        0.648 
 1297000    4621.0291   -3945.7184    6.7423829   -3328.7493    281.72258   -961.26106   0.98503014       0.6485 
 1298000    4624.7981   -3945.0545    10.285882   -3302.8882    291.71943    903.02788   0.98136429        0.649 
 1299000     4628.591   -4020.2105    5.7490546   -3383.2034    291.43207      473.394    1.0077447       0.6495 
 1300000    4632.5024   -4020.6917    6.3222858   -3368.2979    298.27102    1239.8352    1.0125541         0.65 
 1301000    4635.9644   -3973.3211    5.8730354   -3331.9511    293.38909    762.89098   0.98724967       0.6505 
 1302000    4638.7321     -3965.42     6.244946   -3320.0174    295.07909   -139.51435   0.99769855        0.651 
 1303000    4640.9429   -3986.9788    5.3162227    -3339.275    296.57028    250.56799   0.97470992       0.6515 
 1304000     4644.424   -3967.7667    6.3774204   -3316.3706    297.78495   -1239.0213   0.97859996        0.652 
 1305000    4647.8946   -4010.2275    5.4012665   -3348.7627    302.88403    1727.8628      1.00104       0.6525 
 1306000    4651.5142    -3986.496    6.3988606   -3321.8191     303.9064    1076.4617   0.98246105        0.653 
 1307000    4654.9732    -3992.846    5.0418651   -3346.5711    296.03724   -245.21346   0.98582999       0.6535 
 1308000    4658.4885   -3977.6691    7.3487269   -3290.9431    313.64724   -1052.8999   0.96647627        0.654 
 1309000    4661.9543    -3994.352    3.2142247   -3367.0451    288.12411    294.05395     1.006808       0.6545 
 1310000    4665.4792   -3999.1302    4.7966228   -3349.4667    297.71483   -102.03941    1.0218096        0.655 
 1311000     4668.975   -3968.1234    5.5316194   -3284.0816    313.24692   -374.96144   0.98101579       0.6555 
 1312000    4672.3447   -3996.9563    7.4987152   -3352.3435    294.13567   -18.829975    0.9850819        0.656 
 1313000    4675.7841   -4026.1878     4.272785   -3363.8745    303.79674   -2.0917483   0.98301925       0.6565 
 1314000    4679.2309   -4006.1956     4.151666   -3354.3369    299.02608    398.11182    1.0024219        0.657 
 1315000    4682.6869   -3970.7229    6.5116844    -3319.127    297.81524   -302.22968   0.98055395       0.6575 
 1316000    4686.1392   -3994.3337    5.0781251   -3340.7525    299.39361   -632.22254    1.0050246        0.658 
 1317000    4689.6015    -3973.213    2.2033444   -3315.9161    302.43621   -400.86775   0.99765442       0.6585 
 1318000    4693.0364   -3993.1474    5.2525494   -3306.3371    314.65388   -436.09366   0.99366583        0.659 
 1319000    4696.4311   -4025.4975    3.7410678   -3359.2938    305.83828     243.5181   0.98512019       0.6595 
 1320000    4699.8278   -3948.0274      4.32608   -3291.4107    301.14214   -313.61623    1.0080285         0.66 
 1321000    4703.6484   -3957.9639    4.0666272   -3345.6141    280.82531   -61.931761   0.99560743       0.6605 
 1322000    4707.4592   -4025.2078    5.6636843   -3366.0681    301.68942    151.68844   0.99512349        0.661 
 1323000    4711.2946   -4009.5798    5.3235211   -3348.5364    302.72537    899.42527   0.98870689       0.6615 
 1324000     4715.012   -4001.0844    5.2106618   -3332.4013    306.30449   -383.39814    0.9936811        0.662 
 1325000    4718.8208   -4015.6042    6.8377599   -3377.0621    291.63812   -60.825677   0.98493397       0.6625 
 1326000    4722.6094   -4029.1002    4.0481631   -3371.8087    301.58201   -594.45275   0.98676791        0.663 
 1327000    4726.4483    -4013.364     4.940759   -3380.7215     289.7903    1152.9871    1.0050448       0.6635 
 1328000    4730.0104   -3932.2656    6.2977388   -3252.9603    310.70652   -953.66411   0.96506412        0.664 
 1329000    4733.2546   -4028.8934    6.5571054   -3361.4917    305.09131    117.64875   0.98081333       0.6645 
 1330000    4737.0227   -4064.5307    6.0176375    -3400.261    303.89437   -520.04322   0.99532928        0.665 
 1331000    4740.8041   -4009.4799    4.9892363   -3333.0852    309.96687    57.867268   0.97897128       0.6655 
 1332000    4744.6656   -4024.3516    4.3773519   -3340.5139    313.68561    554.69806    1.0189678        0.666 
 1333000    4748.4827   -4037.1195    5.9514268   -3377.9329    301.57823    429.88004     1.020597       0.6665 
 1334000    4752.2518   -3925.9595    5.0281993   -3250.5266    309.50489   -656.32955   0.97917665        0.667 
 1335000    4755.9105    -4018.883    4.8307252   -3382.0784    291.76256    364.24151    0.9714962       0.6675 
 1336000    4759.6835   -4035.9232    7.5678196   -3382.4571    298.19104   -340.91987   0.97470941        0.668 
 1337000    4763.4099    -4004.147    5.7513849   -3330.2764    308.44979    108.14038   0.97790688       0.6685 
 1338000    4767.2425   -4003.8594    3.7154441    -3355.287    297.71025    523.31679     1.002624        0.669 
 1339000    4771.1911    -3984.483    9.5661539   -3308.9152    307.47214    822.97365   0.97137888       0.6695 
 1340000    4775.1569   -4064.9696    7.3339378   -3428.5961    290.40789    286.80049     1.001646         0.67 
 1341000    4779.0258   -3986.1209    5.3179954   -3358.8755    287.12447   -93.748946   0.99299877       0.6705 
 1342000    4782.7713   -3981.3835    5.3421767   -3313.3415    305.94775   -926.29978   0.96384062        0.671 
 1343000    4786.6688   -4056.9363    3.5085497   -3370.3703    315.34627    438.30112    1.0027941       0.6715 
 1344000    4790.5577    -4015.486    4.9938623   -3387.4912    287.62003   -515.86565   0.97153619        0.672 
 1345000    4794.1625   -4054.0879    6.0886351   -3411.7393    293.74134    475.90926    0.9789039       0.6725 
 1346000    4797.6019   -4007.6248    5.2817773   -3318.3695     315.7692    45.018081   0.98362457        0.673 
 1347000    4801.1346    -3970.412     4.469636   -3313.0782    301.40698     90.77541   0.99773356       0.6735 
 1348000    4804.8418   -3982.9591    7.7117126   -3327.2038    299.18144   -1455.5289   0.97363363        0.674 
 1349000    4808.5971   -4030.8348    6.2449891   -3392.8508    291.65414    260.28313   0.98974067       0.6745 
 1350000    4812.3851   -3996.5405    6.8986151   -3347.3909    296.50721    70.105403   0.99146353        0.675 
 1351000    4816.1651   -4062.8762    5.7306692   -3383.3196    311.08437   -398.26581   0.99046871       0.6755 
 1352000    4819.8868   -4026.3791    4.6360314   -3379.1777    296.65235   -531.57908    0.9693803        0.676 
 1353000    4823.6728   -3988.3014    3.4693327   -3327.4164    303.50825    265.05505   0.97979721       0.6765 
 1354000    4827.4669    -3972.059    4.4881841   -3331.1922    293.79613     7.939006   0.99781254        0.677 
 1355000    4831.1865    -3927.328    5.1622367   -3260.5404    305.45176   -706.37693   0.97810884       0.6775 
 1356000    4835.0455   -3962.3924    6.1529735   -3316.8356    295.19276   -278.81641   0.97533502        0.678 
 1357000    4838.7633   -3932.6399    4.0649828   -3269.0545    304.47996    448.19786   0.98909861       0.6785 
 1358000    4842.4037   -4042.5691    7.4154819   -3367.0211    308.45588    123.52907   0.98461804        0.679 
 1359000    4845.0342   -4004.5303    7.2661527   -3309.1285    317.69075   -73.731871   0.95591465       0.6795 
 1360000    4848.6865   -3982.5233    5.0487927   -3349.8305    289.76361   -1130.9078   0.95576889         0.68 
 1361000    4852.4084   -3989.5825    3.4959548   -3360.9971    288.58423   -436.36522   0.97332764       0.6805 
 1362000    4856.1559   -4035.4863    5.7142309    -3374.317    302.60311    504.84242    1.0288805        0.681 
 1363000    4859.9884   -4046.9449    5.3195397    -3394.932    298.55808    63.240293    1.0070067       0.6815 
 1364000    4863.7758   -4019.0382    3.4427241   -3364.0721    300.78801   -764.17268   0.98931917        0.682 
 1365000    4867.5615   -4042.3885    7.3485075   -3389.9232    297.83023    536.23387   0.99187581       0.6825 
 1366000    4871.2907   -3996.8475     3.849854   -3367.9346    288.57206    800.56884   0.99360051        0.683 
 1367000    4875.0808   -4022.6251    6.5550989   -3396.8651    285.86755    372.57636   0.98607351       0.6835 
 1368000    4878.8937   -3992.2504    6.6265014   -3340.6638    297.75791    253.79693   0.98665219        0.684 
 1369000    4882.1644   -3940.2185     4.976961   -3303.9401     291.4521   -74.195459   0.97606178       0.6845 
 1370000    4884.9087   -3972.3549     4.414685   -3313.0439    302.34519    418.22755    1.0012785        0.685 
 1371000     4888.415   -3999.8873    6.6403398   -3354.5156    294.88228    708.16377   0.97707103       0.6855 
 1372000    4892.1555   -4054.6591     6.765445   -3388.3615    304.48538    1036.5998    1.0134684        0.686 
 1373000    4895.4098   -3971.0928    2.9867916   -3320.1948    299.12036    1264.7621    1.0291449       0.6865 
 1374000    4899.1062   -4065.2508    3.9341075   -3408.7722    301.25938   -105.91468    1.0094794        0.687 
 1375000    4902.6341   -4048.6352    6.0165721   -3382.7857    304.62424   -1257.0877   0.99275206       0.6875 
 1376000    4906.2736   -4046.0571    4.0231129   -3387.7596    302.05804    75.013718    1.0076738        0.688 
 1377000    4910.0937   -4026.1895    6.7566989   -3363.5567    302.79747   -345.43978   0.99690551       0.6885 
 1378000    4914.0014   -4044.5353    6.0944591    -3388.749    299.94242    372.73103   0.99796453        0.689 
 1379000    4917.8292   -4030.8341    3.6234804   -3380.0101    298.79225   -390.32667   0.99781526       0.6895 
 1380000    4921.6123   -3991.8416     6.725572   -3333.2979    300.92404   -390.45264   0.97632218         0.69 
 1381000    4925.3221   -4019.4777     5.217564   -3393.8278    286.43419    895.73603   0.99290567       0.6905 
 1382000      4929.15   -4016.5521    6.0080572   -3358.9992    300.79787    976.38399    1.0009914        0.691 
 1383000    4932.9389   -3974.4671    9.9627349   -3344.5732    286.20279    55.295293   0.97340311       0.6915 
 1384000    4936.7065   -4040.5622    6.9875873   -3380.7404    301.39313   -704.42292   0.99239618        0.692 
 1385000    4940.4092   -3968.3117    6.6529353   -3304.0955    303.57638    1950.1545   0.99740031       0.6925 
 1386000    4944.1803   -4030.4529    6.3470529   -3363.3373    305.05618   -115.75037   0.99467823        0.693 
 1387000    4948.1747   -4024.6014    6.5588898   -3376.0296    296.39725    368.53092    1.0047654       0.6935 
 1388000    4952.1245   -4017.7461    6.8772865   -3381.8861    290.38163   -367.00368   0.99408281        0.694 
 1389000    4955.7904   -4008.3507    7.6345252   -3314.9731    316.58611    -2.850022   0.99695193       0.6945 
 1390000     4959.254    -4011.833    4.2240851    -3367.569    295.48643   -283.06446   0.98673862        0.695 
 1391000     4963.005   -4030.6453    6.5158128   -3364.3915    304.58038   -455.82171   0.99565104       0.6955 
 1392000    4966.4162   -3987.4487    5.0174406    -3357.545    288.49044    1102.4096    1.0134481        0.696 
 1393000     4970.082   -3967.7015    5.6345988   -3264.0861    322.23591    771.29308   0.99303861       0.6965 
 1394000    4973.7871   -3990.2545     6.722843   -3305.9682    312.80983    -903.3243   0.97757265        0.697 
 1395000    4977.5434   -4019.7597    3.7662243   -3365.0089     300.5392    719.45286    1.0000031       0.6975 
 1396000    4980.6909    -4041.733    6.1811237   -3388.4078     298.7662    388.53524   0.99996059        0.698 
 1397000    4984.3086    -4027.149    9.5989971   -3385.0786    291.99226    680.71458   0.99804429       0.6985 
 1398000    4987.8589   -4006.9844    8.1542902    -3374.532    288.21889    965.48009    1.0025709        0.699 
 1399000    4991.4557    -3994.889     5.344711   -3380.5735    281.14281   -1923.7794   0.98343234       0.6995 
 1400000    4994.9069    -4014.635    3.4339702    -3352.804     303.9613    1897.6515   0.99179135          0.7 
 1401000     4997.703   -3997.7136    4.1992289   -3332.3665    305.23133   -536.89103   0.98222574       0.7005 
 1402000    4999.8142   -3985.7385    3.4199455   -3319.9878    305.77742    37.437396   0.99192088        0.701 
 1403000    5002.5961    -3958.617    5.3180658   -3333.5371    286.12465   -1172.4313   0.98299501       0.7015 
 1404000    5005.8817   -3959.7675    4.1779866   -3294.2029    305.34149   -1043.7168   0.99248632        0.702 
 1405000    5009.1015   -3987.3694    5.2776004   -3330.2974     300.9131   -397.74061    1.0018527       0.7025 
 1406000    5011.9661   -4015.9297    6.1442035   -3326.0226    315.67194   -1065.4448   0.99899349        0.703 
 1407000    5014.1137   -3979.6612    6.7140675   -3327.8257    297.83241    227.94846    1.0029741       0.7035 
 1408000     5017.164   -4003.4943    5.0607855   -3353.1391    297.91226   -539.42382    0.9960831        0.704 
 1409000     5020.391   -3999.9277    5.6652379   -3346.0319     299.2678     -934.293    0.9632057       0.7045 
 1410000    5023.5967   -4031.6882    6.0192619   -3412.0435    283.29167    373.47612   0.98678354        0.705 
 1411000    5026.9225   -4031.5806    3.0694676   -3353.0027    311.86113    738.08074    1.0005778       0.7055 
 1412000    5030.1642   -4034.4121    4.7421109   -3394.3795    293.29378    768.78727    1.0000477        0.706 
 1413000    5033.4422   -4062.1418    3.8856144   -3439.3836    285.71411   -597.94725    1.0076814       0.7065 
 1414000    5036.7676   -4034.8082    2.5852486   -3392.4556    295.36056    238.48164    1.0118779        0.707 
 1415000     5040.054   -4002.5861    5.2116581   -3325.9349    309.98265    314.95392   0.99087672       0.7075 
 1416000    5043.3989   -4053.1426     10.00246   -3375.7001    308.13622     447.3998    1.0228098        0.708 
 1417000    5046.7581   -3984.4406    6.0875006    -3370.731    280.52011   -808.84899   0.98193958       0.7085 
 1418000    5050.0721   -4045.0808    6.7814046   -3364.2162    311.20311   -497.31323    1.0040238        0.709 
 1419000    5053.3771   -3962.3388    5.6735825   -3291.6422    307.02034    30.777941   0.98726728       0.7095 
 1420000    5056.6414   -4026.9219    4.4903614   -3381.6906     295.8101    648.03944   0.98452882         0.71 
 1421000    5060.1354   -4067.1218    5.1040992   -3439.4241    287.43197    700.99955   0.99170588       0.7105 
 1422000    5063.6628   -4002.1752     7.537109   -3328.4222    307.57103    860.43813   0.97960218        0.711 
 1423000    5067.2515   -3988.6813    9.3071665   -3324.9727    302.11668    62.641596   0.99252233       0.7115 
 1424000    5070.8749   -4000.7897    5.1938312   -3342.1901    301.65701   -322.58203    1.0033516        0.712 
 1425000    5074.2653    -4016.629    4.4003584   -3363.8653    299.32909   -409.34408   0.98321941       0.7125 
 1426000    5077.9707   -4020.4008    4.8677491   -3380.3947     293.2235   -454.44999   0.98151098        0.713 
 1427000    5081.7425   -3991.6869    5.0041861   -3340.9766    298.10229   -679.15295   0.97416239       0.7135 
 1428000     5085.508   -3980.0063    3.4120062   -3323.9558    301.30277   -678.36685   0.98184272        0.714 
 1429000    5089.2841   -4004.3995    3.0071664   -3334.1116    308.06262   -45.510839   0.98558988       0.7145 
 1430000    5093.0794   -4036.0461    6.9032803   -3399.8806    290.51067    151.17748   0.98191536        0.715 
 1431000    5096.8638   -3976.5429    4.2733603    -3334.673    294.35839    655.62628   0.96549011       0.7155 
 1432000    5100.6797   -4028.0011    3.9390586   -3369.6368     302.1277   -324.08572   0.98390863        0.716 
 1433000    5104.5342   -4017.9098    2.8448271   -3367.6712    298.88146    836.11616    0.9858941       0.7165 
 1434000    5108.2669   -4009.5417     4.080295   -3336.7121    308.74063     298.6329   0.98265908        0.717 
 1435000    5112.1086   -3988.2213    6.1293577   -3333.1029    299.61793   -475.11606   0.97897436       0.7175 
 1436000    5115.9522   -4013.7939    4.8011842   -3352.7855    302.95034    392.76369   0.99936553        0.718 
 1437000    5119.8005   -3988.9259    5.0449827   -3325.8932    303.77235    35.514972    1.0105984       0.7185 
 1438000    5123.5929   -3940.5962    5.9194394   -3289.5381    297.84037   -509.54005   0.97766501        0.719 
 1439000    5127.3586   -4023.6771    5.1151534    -3349.831    308.73217    -652.2173   0.99370792       0.7195 
 1440000    5131.1384   -4037.8422    4.7309201   -3410.8626    287.27275    412.36618   0.99459685         0.72 
 1441000    5134.9434   -3986.6533    7.0276749   -3339.2001    295.66448   -719.49934   0.97793956       0.7205 
 1442000    5138.6627   -3992.2877    4.0486205   -3312.7879    311.83469    105.88397   0.98252704        0.721 
 1443000    5142.4017   -3986.0499    5.3712108   -3320.4218    304.81998   -1638.5203   0.98226854       0.7215 
 1444000    5146.0049   -3993.6374    6.0045976   -3322.7421    306.95928   -341.20362     1.000952        0.722 
 1445000    5149.7409   -4007.0591    5.7830852   -3305.3235    321.29951    1005.9635   0.98216591       0.7225 
 1446000    5153.5721    -3976.419     7.026449   -3301.3832      308.399   -974.13193   0.96773136        0.723 
 1447000    5157.2518   -3996.8672    9.2243911   -3322.0774    307.27074    39.091631   0.99005976       0.7235 
 1448000    5161.1504   -4012.6324    7.8701717   -3383.6533    286.74657    472.09583   0.99623773        0.724 
 1449000    5165.0057   -4000.2002    6.3016309   -3314.7985    313.51925     520.9804    1.0007511       0.7245 
 1450000    5168.7774   -3960.7178    5.9898579   -3315.5524    295.08736   -450.23316   0.97100157        0.725 
 1451000    5172.6325   -3954.0208    6.1828032    -3280.197    308.22901   -245.86067    1.0247954       0.7255 
 1452000    5176.4269   -3977.9482    5.6319495   -3331.8452    295.68546    932.73978   0.99395847        0.726 
 1453000    5180.2381   -4034.8093    5.9638161    -3376.308    301.25617   -1081.4762   0.97877721       0.7265 
 1454000    5183.9767   -4016.2506     5.032477   -3358.1076    301.52072    365.04794   0.99064521        0.727 
 1455000    5187.8495   -4023.2404    4.2796815   -3396.1039    287.55354   -193.10811    1.0209777       0.7275 
 1456000    5191.7066   -4021.0047    11.509416   -3352.7365    303.20499    509.22653   0.99994737        0.728 
 1457000    5194.8897   -3989.7321    7.3638469   -3365.4168    284.82716   -102.62972   0.99958483       0.7285 
 1458000    5197.3239   -4001.3095     7.354795   -3374.4146    286.02229    304.82488    1.0071011        0.729 
 1459000    5199.7812   -4000.3415    6.7367486   -3342.3195    300.67806    60.036646    1.0006167       0.7295 
 1460000    5202.8095    -4020.961    9.7579113   -3341.2891    309.27833    487.17621   0.99550928         0.73 
 1461000    5206.4096   -4031.8952    7.6794632   -3409.7595    283.67521    136.20954   0.98286057       0.7305 
 1462000    5209.6872    -3971.652    9.2305961   -3349.0327    283.18235   -465.14562   0.97549097        0.731 
 1463000    5213.0055   -4009.4741    8.1250341   -3329.8228    310.02267    625.90252    1.0159998       0.7315 
 1464000    5215.3326   -4026.0592    6.4622242   -3370.3512    299.73651    264.34861   0.97881833        0.732 
 1465000    5218.8841   -3985.6178    6.0576288   -3345.1301    292.89656   -2.9094381   0.98648446       0.7325 
 1466000    5222.3593   -3950.3095    5.7427301   -3282.8959    305.47273    1277.5431    1.0037345        0.733 
 1467000    5226.1237   -3987.4271    4.6270056   -3349.4011    292.42052   -1395.4947   0.99447186       0.7335 
 1468000    5229.9031    -3987.072     5.173655   -3306.5091    311.80609   -1543.1453   0.96300384        0.734 
 1469000    5233.7523   -3949.3047    5.8776122   -3317.9048    288.78408    111.34433   0.98242879       0.7345 
 1470000    5237.4938   -4029.7874    4.3538846   -3393.1446    291.90798   -698.33102   0.97735863        0.735 
 1471000    5241.0747    -3966.127    6.1893845   -3268.9158    319.02319    1324.1347    0.9789166       0.7355 
 1472000    5244.7342   -3968.7584    6.3434608   -3306.7807    302.68584   -264.55207   0.97448013        0.736 
 1473000    5248.4099   -3981.1138    3.7075833   -3351.3204    289.04425    722.73232     1.005421       0.7365 
 1474000    5252.1272   -4022.6854    4.6699334   -3382.1513    293.55861    24.511823    1.0228386        0.737 
 1475000    5254.9998   -3985.1675    5.3558368   -3299.2644    314.18739    2353.4447    1.0242373       0.7375 
 1476000    5258.7392   -4013.5782     5.548864   -3370.8611    294.16066    283.97277   0.99662688        0.738 
 1477000    5262.4823   -4003.3231    6.3572844   -3326.7437    309.42058    851.26888   0.97773757       0.7385 
 1478000    5266.2629   -4009.0031    7.9567451   -3361.8405    295.10134   -442.14526   0.99200668        0.739 
 1479000     5269.964   -3969.9207     5.612731   -3315.0729    299.73152    553.97298    1.0060854       0.7395 
 1480000    5273.7767   -3970.2613    5.0025637    -3300.212    307.03129     -653.567   0.99510396         0.74 
 1481000    5277.6336   -4033.3553    4.7541193   -3374.0108     302.2039   -28.585833    1.0029302       0.7405 
 1482000    5281.4146   -3953.8892    7.0347098   -3280.2594    307.74609   -424.50647   0.98485554        0.741 
 1483000    5285.1607   -3989.7415    5.8855204   -3354.6138    290.50144    1796.4964   0.98546266       0.7415 
 1484000    5288.9532   -3989.1187    5.6558182   -3351.4894     291.7624   -288.72978   0.97696813        0.742 
 1485000     5292.618    -4034.986    5.5621568   -3368.1895    305.27121   -19.745346   0.99881789       0.7425 
 1486000    5296.4086   -3990.7883    4.0874764   -3315.9648    309.65784   -187.86112   0.96774468        0.743 
 1487000    5300.2133   -4011.3133      7.45011   -3394.4073    281.36673     -172.932    0.9818703       0.7435 
 1488000    5304.0096   -3984.8879    4.4233842   -3314.6223    307.39853    25.688759   0.99153428        0.744 
 1489000    5307.8471   -3932.6639    4.7812825    -3294.455    292.43371    -278.5537   0.97211091       0.7445 
 1490000    5311.7505    -4032.438    6.2437694   -3381.4732    297.64754    1729.3336    1.0044105        0.745 
 1491000    5315.5694   -4052.6973    9.0455875   -3412.8106    291.23964   -863.08569    1.0113103       0.7455 
 1492000    5319.3643   -4009.5122    8.2773393   -3302.8616    322.41709   -218.40572   0.97949361        0.746 
 1493000    5323.0905   -3946.2473    6.5801407   -3306.1917    292.45582   -386.66253   0.96890528       0.7465 
 1494000    5326.7888    -4005.935      7.27017   -3340.8349    303.69949   -167.99842   0.96175694        0.747 
 1495000     5330.515   -4006.4789     9.371888   -3351.6757    297.97546   -370.26584   0.95241614       0.7475 
 1496000    5334.3084   -4012.5432    5.5596512    -3351.534    302.60059    718.09836   0.98149974        0.748 
 1497000    5338.2039   -4038.8832     3.435129    -3387.571    299.10459   -655.16484   0.99249253       0.7485 
 1498000    5342.0177   -3984.6363      4.80077   -3316.8586    306.07571   -204.12013   0.98468534        0.749 
 1499000    5345.8763    -3992.857    5.9983628   -3333.1018    301.81905   -288.84995   0.99698102       0.7495 
 1500000    5349.6484    -3946.104    7.9373544   -3263.0904    311.66163   -789.69596   0.96775745         0.75 
 1501000    5353.1007   -4006.8705    4.8787644   -3341.6072    304.87892    672.83355    0.9990927       0.7505 
 1502000     5356.582   -4024.4078    6.1540875   -3356.8687    305.34078   -218.90797    1.0164095        0.751 
 1503000    5360.0825   -4011.9135    3.9145102   -3287.1338    332.80094    33.721307   0.99622369       0.7515 
 1504000    5363.5746   -4008.5578    7.1578143   -3344.5652    303.24009   -1071.9275   0.99727036        0.752 
 1505000     5367.027   -4052.3775     8.814721   -3370.9416    310.52819    -632.5103   0.98951812       0.7525 
 1506000    5370.4674   -4056.8563    6.5638798   -3396.8794    301.66035    1293.4767    1.0176974        0.753 
 1507000    5373.8833   -3971.8087    8.0962892   -3318.4289    297.90723    887.47084    1.0072207       0.7535 
 1508000    5376.2433   -3987.4669    4.7203811   -3329.7526     301.4669   -528.42066    1.0005783        0.754 
 1509000     5379.479   -3995.6473    9.2601601   -3341.7141    297.62535   -890.46125   0.99588314       0.7545 
 1510000    5382.6596   -4010.1837    9.7690103   -3335.1586    307.12793    1053.2047   0.99281292        0.755 
 1511000    5385.9728   -3983.4624    6.0977871   -3279.9205    321.98813   -498.34238   0.98212978       0.7555 
 1512000    5389.4268   -4012.9759    7.3103165   -3354.8304    300.47024   -173.20523   0.98584266        0.756 
 1513000    5392.8778    -3996.773    6.0528604   -3356.8471    292.63936   -611.96096    0.9699597       0.7565 
 1514000    5396.2695   -3996.6722    9.7812083   -3344.8119    296.42784   -126.85739    0.9849349        0.757 
 1515000    5399.6823   -4051.8419    6.1205862    -3410.415    293.30102    628.28574    1.0039505       0.7575 
 1516000    5402.8634   -3993.5078    7.8768181   -3313.6078     310.2521   -506.19418   0.97600294        0.758 
 1517000    5406.2035   -4045.3633    6.7133783   -3382.4798    302.93321    847.11947    1.0065833       0.7585 
 1518000    5409.6339   -4035.7361    5.2338708   -3384.8154    298.09338    287.82018     1.002429        0.759 
 1519000    5413.0831    -3999.871     7.778752   -3352.7846    295.14838   -392.07346    0.9890285       0.7595 
 1520000    5416.5767   -4017.0663    7.5927842   -3342.4424     307.9474   -347.67015   0.98676927         0.76 
 1521000    5420.2895   -4005.9233    5.0178779   -3383.0457    285.24654   -250.25103   0.97518233       0.7605 
 1522000    5423.9698   -4008.8961    9.7032888   -3334.4648    306.88416    -146.4371   0.97399473        0.761 
 1523000    5427.1303   -4036.0671    6.4798429   -3390.2044    295.18305   -226.71424   0.98806843       0.7615 
 1524000      5430.79   -3968.9126     8.725459   -3292.2408    308.36995    979.18109   0.96235218        0.762 
 1525000    5434.4733   -3988.3377    6.1932129   -3323.7388    303.96531    -376.9541   0.97845395       0.7625 
 1526000    5438.0396     -4057.23    7.1220612   -3384.7331    307.18279    970.47861   0.98362697        0.763 
 1527000    5441.7064   -4021.2723    7.2151759   -3350.4362    306.37302    525.54107    1.0010325       0.7635 
 1528000    5444.5524   -4010.4743    9.2376688   -3414.4269    270.91172     490.5444   0.99288332        0.764 
 1529000    5448.1072    -4027.989    5.9259367   -3371.8075    300.20269   -60.054027   0.98315155       0.7645 
 1530000    5450.8023   -3995.2972    4.9612346   -3352.7095    294.37216    391.56056    1.0219918        0.765 
 1531000     5454.497   -4017.8833     6.549662   -3395.4049    284.35504    511.12186    1.0145933       0.7655 
 1532000    5457.9816   -3988.1052    5.6386276   -3338.3463    297.37017     1172.106    1.0041746        0.766 
 1533000    5461.5933   -4006.2798       7.4649   -3312.8101    316.70699    37.157499   0.99987985       0.7665 
 1534000     5465.156   -4036.2668    3.9106121     -3382.06    300.22144    642.08954    0.9846398        0.767 
 1535000    5468.6829   -3976.2837    4.9389588   -3324.0318    298.84414    991.13004   0.99118192       0.7675 
 1536000    5472.2054   -3980.2909    8.5463769   -3320.0987    300.84453   -73.262257   0.96956101        0.768 
 1537000    5475.8854   -4052.7857    5.2550365   -3376.8975    309.61034    653.99999   0.98820701       0.7685 
 1538000    5479.6287   -4009.2134      9.68708   -3335.5932    306.51713   -77.418185    1.0167563        0.769 
 1539000    5483.4268   -4030.3913    7.9311265   -3361.4939    305.14746    186.03704    1.0176085       0.7695 
 1540000    5487.2488   -4065.8738    3.1258493   -3397.9623    306.91073     212.3565    1.0096008         0.77 
 1541000    5491.0979    -4016.096    3.2630232   -3317.4256    321.04784    1059.7982   0.99260501       0.7705 
 1542000    5494.8945   -4008.4167    7.6031712   -3385.5152    284.06397    101.07701   0.99466639        0.771 
 1543000    5498.7802   -4040.4559    5.8671463   -3401.2037    292.41408   -217.59338   0.99819734       0.7715 
 1544000    5502.4565   -4000.9491    4.7791696   -3347.8938    299.28882     397.0669    1.0028214        0.772 
 1545000    5506.1969   -4037.6715    5.0184139   -3369.9176    305.96425    234.87684   0.98703439       0.7725 
 1546000    5509.3996   -4005.7702    6.4535719   -3344.6314    302.24768    650.55384    1.0096059        0.773 
 1547000    5511.7687    -4007.055    5.1727146   -3337.8001    306.58597    641.08577   0.98949608       0.7735 
 1548000    5514.1636   -3999.0321    6.1616074   -3328.6879    306.63234   -385.59755   0.98227034        0.774 
 1549000     5516.919   -3991.6723    6.5050844   -3345.2115    295.44754    568.18175   0.99675894       0.7745 
 1550000    5520.7014    -4020.372    6.9828288   -3360.8519    301.25609   -815.96535   0.98943343        0.775 
 1551000    5524.2171   -4002.5151    6.6117661   -3332.1137    306.45094    44.699003   0.96087582       0.7755 
 1552000    5527.8883   -4054.4938    7.4712233    -3375.072    310.21857   -386.52366   0.99122618        0.776 
 1553000    5531.3874   -4055.0796    6.4430371   -3428.1132    286.47622    609.92656   0.99960356       0.7765 
 1554000     5535.063   -4062.7794       6.9087   -3391.3017    306.81071    185.69558   0.98208954        0.777 
 1555000    5538.8098    -4023.091     4.918321   -3349.6989    308.61344    432.27404   0.97860034       0.7775 
 1556000    5542.4606   -4020.9355    6.3166181   -3363.1531    300.76139   -641.39229   0.95629013        0.778 
 1557000    5546.3468   -3975.3024    9.8025164   -3337.5397    289.90961   -188.04154   0.97111348       0.7785 
 1558000     5550.106   -4038.2115    5.5942873   -3391.4516    296.00614   -423.32318   0.98378005        0.779 
 1559000    5553.7699   -4027.4319    8.2448405   -3388.6913    291.08016   -297.30427   0.99497222       0.7795 
 1560000    5557.5645   -4011.6838    7.1112298   -3352.9815    300.81925   -573.06928   0.98382605         0.78 
 1561000    5561.4048   -3999.3228    6.8229668   -3353.4117    295.04702   -814.55066    1.0027958       0.7805 
 1562000    5565.3048   -4055.1293    6.8315771   -3396.9968    300.68527    1073.7586    1.0132717        0.781 
 1563000    5569.1301   -4040.4494     8.946177   -3399.0448    291.98626     22.63142      1.01615       0.7815 
 1564000    5572.9491   -3999.2061    9.6460139    -3358.975    291.12142   -276.92952   0.98093084        0.782 
 1565000    5576.7284   -4025.0367    5.1728151   -3389.2259    291.14583   -504.84955    0.9936035       0.7825 
 1566000    5580.4965   -4068.8651    9.1662161   -3401.1189    304.04579    1967.0352    1.0154129        0.783 
 1567000    5584.3256    -3997.086    8.4592828   -3335.1823    301.67482    886.60671    1.0154812       0.7835 
 1568000    5588.0925   -4011.2731     11.10513   -3397.7445    278.12008    1302.1498    1.0053703        0.784 
 1569000    5591.8433   -4008.9917    6.3535756   -3362.8006    295.39297   -731.95923   0.98390232       0.7845 
 1570000    5595.5663    -3962.772    6.7740494   -3318.9991    294.08243    1137.5371    0.9835087        0.785 
 1571000    5599.2401   -3983.1474    8.7063536   -3330.4745    297.29922    170.51516   0.98314122       0.7855 
 1572000    5602.8558   -3993.1146    9.0256042   -3311.6971     310.4223   -682.23841   0.94348559        0.786 
 1573000    5606.5327   -4051.2949    8.6647117     -3384.43    303.87045    914.68716   0.99943644       0.7865 
 1574000     5610.201   -4007.8652    6.4963706   -3369.2864    291.81272   -161.84024   0.98936693        0.787 
 1575000    5613.9421    -4043.438    6.2113296   -3354.8128    315.04914    806.60396    1.0298518       0.7875 
 1576000    5617.7047   -3922.7839    6.4332955   -3238.2414    313.06183    1063.6057    0.9862443        0.788 
 1577000    5621.3899   -4007.6591    6.9798607   -3390.8683    281.53064    157.31114   0.98266136       0.7885 
 1578000    5625.1672   -4007.0239    6.1676961    -3341.614     304.3515    458.68415   0.99010775        0.789 
 1579000    5628.8832   -4026.5922    7.8604807   -3382.3367     293.8037    333.18432   0.97789211       0.7895 
 1580000    5632.5601   -4007.8144    7.3853612   -3334.2777    307.54122   -372.37348   0.97887919         0.79 
 1581000     5636.291   -4022.6903    7.1831748    -3354.908    304.97798    434.00018   0.98051268       0.7905 
 1582000    5640.1273   -4050.6486    2.9550691   -3399.2428    299.36939   -7.4303952   0.99452313        0.791 
 1583000    5643.9346   -3992.0778      4.61037   -3341.2619    298.33292   -153.66059   0.98823932       0.7915 
 1584000    5647.7165   -4064.1187    3.8633168   -3449.1744    282.11701   -134.72017   0.99601822        0.792 
 1585000    5651.4069   -4009.2792    3.3244845   -3300.6087    325.63621    791.12297   0.98120563       0.7925 
 1586000    5655.2191   -4021.2859    3.1823285   -3385.9311    291.85427   -256.06372    0.9914279        0.793 
 1587000    5658.9613   -3986.7581    4.8782227   -3319.7309    305.69348    1130.4776   0.98886838       0.7935 
 1588000    5662.6777   -3983.4639    5.0482659   -3352.3631     289.0289    233.21709   0.99964561        0.794 
 1589000    5666.4791   -4004.1503    5.3932139   -3364.7374    292.70708   -470.14183    1.0028228       0.7945 
 1590000    5670.3301   -4049.0208    5.3764847   -3381.7274    305.58635    36.777601    1.0019189        0.795 
 1591000    5674.1797   -4006.2935    5.0894987   -3374.8447    289.17051    687.40492   0.99044426       0.7955 
 1592000    5677.8968   -4082.1919    6.7287407   -3435.4113    295.49193    1048.2168   0.99006978        0.796 
 1593000    5681.3286   -4046.9965    7.4012382   -3406.0144    292.50446    987.64643   0.97128349       0.7965 
 1594000    5685.0274   -3975.7455    5.3738072   -3309.8281    304.95232    971.41186   0.97456409        0.797 
 1595000    5688.8584   -4029.3149     5.661754   -3373.4992    300.15576   -408.49124   0.98810747       0.7975 
 1596000    5692.6072   -4018.4677    5.1796418   -3335.8604    312.74719    663.21532   0.97291831        0.798 
 1597000     5696.371   -4009.9818    7.5377434   -3340.8453    305.43945   -1115.8671   0.99416075       0.7985 
 1598000     5700.156   -3942.3005     6.774913    -3269.947    307.27683    202.98886   0.98451918        0.799 
 1599000    5703.9598   -3939.8506    7.1119045   -3300.4821    291.89311   -1407.7969   0.98396405       0.7995 
 1600000    5707.7506   -4010.7105    5.4072858   -3324.4801    314.31472    596.06032   0.97522577          0.8 
 1601000    5711.2133   -3929.5874    3.0644602   -3251.6604     311.5629   -368.71069   0.97750084       0.8005 
 1602000    5714.7139   -3953.3636    7.9579719   -3282.2057    306.17869   -284.62703     0.982167        0.801 
 1603000    5718.2201   -3957.1697    5.8919681   -3327.9411      287.775   -734.66076   0.97239449       0.8015 
 1604000    5721.6517   -3988.1625    4.3599008   -3349.7399    292.72691   -744.17403   0.97172948        0.802 
 1605000    5725.0517   -3979.5752    5.4212221   -3350.5698    287.88933   -164.55614   0.97612605       0.8025 
 1606000      5727.73   -3998.5255    5.6534171   -3346.9492    298.20239     285.2775    1.0018375        0.803 
 1607000    5731.1577   -4014.7756    7.2327559   -3336.2717     309.9049    -767.8584   0.98910361       0.8035 
 1608000     5734.635   -4034.2197    2.4611217    -3375.176    303.12364    150.09533    0.9961503        0.804 
 1609000    5738.0232   -4026.8065    5.8424564   -3348.1243     310.6291    1416.9145   0.99825598       0.8045 
 1610000    5741.4399   -4073.2154    7.4667442   -3413.6227    301.06617   -375.33431   0.97299782        0.805 
 1611000    5744.9116   -4012.4146    9.2497592   -3348.8617    302.07131    -520.0386   0.96905709       0.8055 
 1612000    5748.3081    -4015.281     9.448668   -3359.7191    298.29026    895.63865   0.98614019        0.806 
 1613000    5751.7207   -3996.4969     6.909203   -3338.1884    300.73066   -328.25069   0.97493424       0.8065 
 1614000    5755.1998   -3981.5315     5.500712   -3306.7517    308.98522   -495.17254    0.9905323        0.807 
 1615000    5758.6421   -4016.6499     4.657675   -3357.8073    302.01673    1074.3089    1.0113568       0.8075 
 1616000    5762.1149   -3989.8994    4.8248564   -3320.1792    306.96135   -2051.1685    0.9702119        0.808 
 1617000    5765.5827   -3936.4822    4.4796737   -3288.4082    297.12736     262.9233   0.99621239       0.8085 
 1618000    5769.0777   -4039.5668    5.9765122   -3396.9322    293.92514    1739.0381    1.0174937        0.809 
 1619000    5772.4678   -4035.4553    6.6191468   -3367.1323      305.488   0.67176973   0.99166752       0.8095 
 1620000     5775.826   -3959.9047    5.9137213   -3273.2589    314.27271   -153.59556   0.99955103         0.81 
 1621000    5779.4163   -3977.9204    6.4252697   -3343.7271    289.82086    387.83994   0.99048546       0.8105 
 1622000    5782.9767   -4034.4248    4.0987424   -3378.5279    300.91483    560.32491    1.0059592        0.811 
 1623000    5786.4042   -3988.7439     4.146926   -3333.6768    300.50948    53.824743   0.98351391       0.8115 
 1624000    5789.7984   -4027.0524    7.0048978   -3375.6708    297.48857    378.18349   0.97949811        0.812 
 1625000    5793.2985   -4012.3669    6.7548924   -3342.1774    306.28697     268.5403   0.98604759       0.8125 
 1626000    5796.8922   -4037.9588    7.4479806    -3380.736     299.9807   -475.34337   0.99095656        0.813 
 1627000    5800.3873   -4032.9854     4.576472   -3393.4192     293.1549    511.37615   0.99043851       0.8135 
 1628000    5804.1698    -4012.006     5.528701   -3352.4216    301.95706   -531.99503   0.97094469        0.814 
 1629000    5807.8492   -4041.2462    5.3630419   -3366.4459    309.05824   -301.70941   0.99504085       0.8145 
 1630000    5811.5846   -4020.3555    5.6566758   -3367.9198    298.59766    440.52855    1.0043298        0.815 
 1631000    5815.4899    -4014.193    4.3728126   -3378.9473    291.25432    -988.2739   0.98723509       0.8155 
 1632000    5819.2809   -4017.6899    5.6176762   -3335.0878    312.54254     67.87814    1.0111029        0.816 
 1633000    5823.1113   -3975.7215    5.8905726   -3305.6719    306.62145   -203.36266   0.98596334       0.8165 
 1634000    5827.0103   -4015.8919     5.300805   -3331.8656    313.34634    1207.6681    1.0259472        0.817 
 1635000    5830.9102   -4052.7512    7.9258603   -3405.7783    295.02804   -437.00676   0.99161248       0.8175 
 1636000    5834.8202   -4074.5101    4.4417684   -3409.9146    304.77229   -1821.2608   0.99703965        0.818 
 1637000    5838.7601   -4097.0301    4.5162362   -3453.6487    294.94408    315.03346   0.99513231       0.8185 
 1638000    5842.5314   -4008.1603    7.6677712   -3332.3498    308.46062   -356.59309   0.96682542        0.819 
 1639000     5846.296   -4048.9663    6.3530876   -3381.3063    305.30474     345.5672   0.98882413       0.8195 
 1640000    5850.0293   -4032.0259    5.0738181   -3359.1253    308.31475    547.18224   0.97877849         0.82 
 1641000    5853.8088   -3986.6514    5.7697776   -3322.9204    303.76014   -238.81729    0.9914652       0.8205 
 1642000     5857.584   -3966.3687    4.9159862    -3313.063    299.34128    721.57773   0.98486851        0.821 
 1643000    5861.3989   -4012.3177    5.8275221   -3359.4914    298.69913    772.45815    1.0018464       0.8215 
 1644000    5865.2053   -4031.1342    4.3321893    -3387.227    295.27182    434.90526   0.98690949        0.822 
 1645000    5868.9669   -4007.5809    9.8401168   -3343.5545    302.01734   -410.49857    1.0003822       0.8225 
 1646000    5872.7571   -3962.5208    8.1859108   -3279.5988    311.50456    112.30814   0.97504945        0.823 
 1647000    5876.5924   -3985.2482    6.0005391   -3310.2046    308.87622    802.09772   0.98625507       0.8235 
 1648000    5880.4297    -3982.119    4.5384877   -3329.6677    299.12107    397.08145   0.98429218        0.824 
 1649000    5884.2755   -3952.8703    7.4295617   -3294.4765    300.52983    208.87786   0.98039025       0.8245 
 1650000    5888.1419   -3988.7599     4.920481    -3352.143    291.63449    81.194688   0.99498406        0.825 
 1651000    5892.0946   -3938.5842     4.258158   -3255.8392    313.23614    430.39652   0.99264395       0.8255 
 1652000    5895.8955   -4006.1558    3.7951157   -3343.4263    304.20938   -393.03382   0.99000058        0.826 
 1653000    5899.6629   -3983.1603    3.6076751   -3340.3895    295.08162    54.773607   0.99705139       0.8265 
 1654000    5903.3828   -4010.1553    3.2122122   -3361.9531    297.77168    688.80044   0.99187166        0.827 
 1655000    5907.1984   -4000.3238     8.109398   -3318.5118    311.02743   -1234.5596    1.0014344       0.8275 
 1656000    5911.0666   -4034.5574       4.2445   -3368.8357    305.38334    -690.1342   0.98954227        0.828 
 1657000    5914.9271   -4012.2618    3.0652087   -3355.7158    301.69165    793.75941    1.0176383       0.8285 
 1658000    5918.7529   -4018.0272    2.9148338   -3373.2927    296.30805   -373.01179   0.96894538        0.829 
 1659000    5922.5559     -3987.44    2.9409783   -3312.7797    310.11178    515.26276    0.9800146       0.8295 
 1660000    5926.3362   -4057.0523    4.3357481   -3436.9881    284.26258    344.42423   0.98516746         0.83 
 1661000    5930.0843   -4043.7183    5.4070913   -3380.3854    303.74378   -107.72511   0.99121437       0.8305 
 1662000    5933.8292   -4002.5765    4.3476516   -3385.1758    283.02741    567.37465   0.99376467        0.831 
 1663000    5937.6176   -4011.6778     4.151276   -3363.6249    297.26924   -149.83317   0.99333395       0.8315 
 1664000    5941.4532   -3986.4959    3.9567486   -3350.1934    291.93424    268.65635   0.99945025        0.832 
 1665000    5945.2617   -3980.5174    3.7111531   -3278.9504    322.17821    1228.8163   0.99296903       0.8325 
 1666000    5948.8985   -4052.1537     6.867569   -3409.9843    293.29898   -503.73596   0.99040638        0.833 
 1667000    5952.4674   -4010.6566    5.4239631   -3359.8466    297.95454   -624.46825   0.98944785       0.8335 
 1668000    5955.9032   -3983.5516    3.2840139   -3315.4326     306.9335    353.44328    0.9783986        0.834 
 1669000    5959.4221    -3973.684    4.3357224   -3337.7483    291.58994    712.42997   0.97020607       0.8345 
 1670000    5962.8177   -4029.1013    4.9537818   -3359.7902    306.71301   -288.76141   0.99314485        0.835 
 1671000    5966.4534   -4021.2024    5.1377216   -3384.9544     291.3639    375.56982   0.98485403       0.8355 
 1672000    5970.0921   -3966.8784    7.1104569   -3330.9072    290.32534   -916.77242   0.97327105        0.836 
 1673000    5973.9193   -3984.6481    4.8220691    -3302.177    312.84935    1047.5352    1.0055472       0.8365 
 1674000    5977.7335   -3972.4621    5.1369529   -3283.3754    315.75821   -686.87705   0.99141704        0.837 
 1675000    5981.5851   -4014.0072    3.3528149   -3370.8874    295.36037    -843.1583   0.98869953       0.8375 
 1676000    5985.3932   -4036.4896    2.7605803   -3385.0966    299.45331    129.51783    1.0054263        0.838 
 1677000    5989.1925   -4029.3127    3.4848417   -3380.2728    298.03258   -1443.9645   0.99192035       0.8385 
 1678000    5993.0125   -3977.8726    6.2015259   -3345.7071    288.98801     458.6685    1.0079768        0.839 
 1679000    5996.9061   -4010.9994     3.044843   -3375.7783      291.856   -16.819996   0.99461979       0.8395 
 1680000     6000.742   -3970.3428    3.9358209   -3271.7255    320.71271    246.87047   0.99933865         0.84 
 1681000    6004.6189   -3977.0149    4.6061036   -3310.8585    305.41711   -1498.1889    0.9851348       0.8405 
 1682000    6008.4383   -4022.4294     5.365042   -3379.8542       294.18    621.85845    1.0047831        0.841 
 1683000     6012.199   -3988.2445    5.6844096   -3362.0878    286.45268    151.70998    1.0011384       0.8415 
 1684000     6015.868   -3989.5082    4.8171067   -3342.9214    296.28497   -80.989585   0.97262969        0.842 
 1685000    6019.6405   -3996.8762    4.8735075   -3323.1917    308.76915    843.29078    1.0017828       0.8425 
 1686000    6023.4674   -3988.6878    7.3832625   -3352.4343    290.32973   -490.62386   0.98853153        0.843 
 1687000    6027.1954   -3976.2677    6.4393913   -3352.7733    284.87498     -360.469   0.97966567       0.8435 
 1688000    6030.8928   -4023.6858    6.4935722    -3360.488    303.17983    721.95679   0.97874662        0.844 
 1689000    6034.5905   -4040.4524    7.6169372   -3364.3029    308.64056    200.64537   0.97946081       0.8445 
 1690000    6038.2922   -4006.1224    5.8315012   -3338.2639    305.63718   -130.94495   0.98000133        0.845 
 1691000    6041.9946   -3979.8345    5.9676953   -3291.0756    315.22334    335.82429   0.98343707       0.8455 
 1692000    6045.6197   -3986.8797    6.4307472   -3373.1007    280.39371    314.87056   0.97719801        0.846 
 1693000    6049.2208   -4073.6675    9.5661045   -3442.9412    286.77021   -98.692196    1.0008249       0.8465 
 1694000    6052.8307   -4048.0022    6.3326451   -3359.9187    314.74305   -480.32823     0.992826        0.847 
 1695000    6056.3812   -4016.4756    4.9985064    -3354.083    303.49832   -843.58254   0.97926618       0.8475 
 1696000    6059.9778   -4027.1536    4.1394309   -3343.7089    313.61404   -845.66813   0.98235885        0.848 
 1697000    6063.5804   -4046.6339    5.8509626    -3380.338    304.90677    1050.4627   0.98084704       0.8485 
 1698000    6067.1695   -4035.9882     3.653154   -3360.5599    310.13756   -972.49164   0.97685968        0.849 
 1699000    6070.8713   -3993.3618    4.8963066   -3324.3687    306.59273    163.33066   0.98679638       0.8495 
 1700000    6074.1571   -3940.8266    6.2755004   -3244.5709    318.54227   -263.42058   0.96448931         0.85 
 1701000    6076.2463   -4005.7345    4.9464551   -3377.7675    287.62909    256.27805   0.98928255       0.8505 
 1702000    6078.3374   -4006.7914    6.8174356   -3339.2712    305.02579    937.62954   0.98751114        0.851 
 1703000    6081.4243   -4009.1951    6.1446937    -3338.584    306.76338    371.79765   0.99063988       0.8515 
 1704000    6084.7907    -4018.798    6.5170698   -3382.2411    290.86969    220.31546   0.99698879        0.852 
 1705000    6088.2236   -4045.4911    5.4355456   -3394.8963    297.84986   -934.69275   0.98689469       0.8525 
 1706000    6091.6873   -4035.8139    5.7689731   -3386.0789      297.299    110.27672    1.0000502        0.853 
 1707000     6095.151   -4040.2112     8.062285   -3435.8909    275.27366   -719.13462    1.0029739       0.8535 
 1708000    6098.6326   -3971.4047    7.6103294   -3300.4889    306.22736   -657.46241   0.98397141        0.854 
 1709000    6102.0684    -3996.959    6.1837044   -3313.8415    312.51918   -1136.8724    0.9809947       0.8545 
 1710000    6105.5502   -3978.5659    7.7467175   -3335.8236     293.1576   -134.00545   0.98601656        0.855 
 1711000    6109.0651   -4004.7673    3.1706182    -3332.594     308.8576    1078.6655   0.99474985       0.8555 
 1712000    6112.5722   -3986.9854    3.7476189   -3337.1374    298.28433   -1315.4451   0.97163649        0.856 
 1713000    6116.0019   -4050.6822    5.0943425   -3401.4676    297.37018    286.01034    1.0109284       0.8565 
 1714000    6119.3902   -4017.1783    4.6904333    -3346.994    307.23768   -248.03098   0.99258742        0.857 
 1715000    6122.8528   -3981.0854    4.5598369   -3269.9522    326.20285    61.156999   0.98958236       0.8575 
 1716000    6126.3502   -4028.2134     7.476693   -3374.8277    298.19603   -435.20869    1.0023992        0.858 
 1717000     6129.857   -3985.1725    6.2470709   -3340.2613    294.85126    335.77434   0.99598176       0.8585 
 1718000    6133.4917   -4015.9075    6.2259687   -3347.5304    305.69448    1053.6105   0.99606103        0.859 
 1719000    6136.9425   -3984.5096    5.6650554   -3318.6798     304.7774    356.42653   0.98499319       0.8595 
 1720000    6140.2752   -3966.5154    7.0444925   -3286.2485    310.80574    19.564109    0.9778763         0.86 
 1721000    6144.2301   -3998.7823    7.3983135   -3324.5769    307.84398   -473.59154    1.0047709       0.8605 
 1722000    6148.2012   -4007.0294    6.0187381   -3353.4102    298.97689    1371.8128    1.0200934        0.861 
 1723000     6152.173   -4036.9743    7.0305398   -3415.8875    283.49055    376.51024    1.0056114       0.8615 
 1724000    6156.1117    -3983.764    5.6688893   -3334.2586    297.23918    244.10152   0.98432023        0.862 
 1725000    6160.0616   -4001.7475    5.0630023   -3390.9504    279.64847    795.02723    1.0042005       0.8625 
 1726000    6163.9153   -3999.0848    6.6445332   -3348.9959    297.05814   -840.35997   0.97296853        0.863 
 1727000    6167.7419   -4069.1697    8.6513868   -3452.3175    280.78727    -1155.655   0.99712564       0.8635 
 1728000    6171.5849   -3965.2969    5.8960982   -3340.6471    285.65922   -94.697461   0.99312733        0.864 
 1729000    6175.4212   -4013.9945    6.1966192   -3372.0913    293.48586      998.184    1.0082742       0.8645 
 1730000    6179.2204   -4007.0897    7.6493111   -3338.4671    305.15068   -368.79157   0.97444239        0.865 
 1731000    6182.9548   -4008.7471      4.24268    -3373.076    291.51074    -91.70313   0.98371573       0.8655 
 1732000    6186.6801   -4055.7725     5.144013    -3389.334    305.29898    521.92932   0.99456074        0.866 
 1733000    6190.4492   -4016.1529    8.7466509   -3347.4588    304.67709   -667.71543   0.99312157       0.8665 
 1734000    6194.3194   -4025.2251    6.9222839    -3356.648    305.46536    251.96234    1.0044268        0.867 
 1735000    6198.2316   -3993.1576    4.1988235   -3350.7717      294.631   -121.57399   0.99602151       0.8675 
 1736000    6202.0545   -4016.1229    5.0749289   -3373.5504    294.31271   -1234.9156   0.98180601        0.868 
 1737000    6205.9502   -4016.9555    4.7383822   -3373.8604    294.70931   -635.91309   0.98936237       0.8685 
 1738000    6209.9043   -4000.2664    4.7886189   -3364.3317     291.3804   -205.37541   0.98124529        0.869 
 1739000    6213.6713   -3997.5025    3.8848905   -3357.8595    293.50964   -1357.2289   0.97002016       0.8695 
 1740000     6217.416   -4037.2931    4.2307334   -3332.3157    323.51284    1778.6554   0.98118413         0.87 
 1741000    6221.2348    -4040.677    7.0905567   -3383.5774    300.08885   -1128.9872   0.99522515       0.8705 
 1742000    6225.1073   -3982.0977    10.573457   -3325.7087    298.15287   -690.41519   0.98593573        0.871 
 1743000    6228.9664   -3994.0086    8.2127558   -3319.4423    307.63463    759.55882    1.0033852       0.8715 
 1744000    6232.8568   -3998.7453    6.3210605   -3358.8366    292.50758    105.14908   0.99374601        0.872 
 1745000    6236.7826   -4027.7706    5.5622585   -3381.1317    295.96502    616.20685   0.99516763       0.8725 
 1746000    6240.7221   -3977.0959    6.8401847   -3330.9457    295.14943    -507.4494   0.99433015        0.873 
 1747000     6244.601   -4023.0355    4.6909744   -3369.8742    299.37848    12.819018    1.0121228       0.8735 
 1748000    6248.4673   -4048.2717    4.5810353   -3381.2836    305.81264    32.787052    0.9912812        0.874 
 1749000    6252.3112   -3979.2435    5.3417605   -3344.8508    290.41315    1012.3189   0.99579684       0.8745 
 1750000    6256.2138   -3958.4021    5.9444104   -3315.2109    294.19691   -186.12277   0.98325625        0.875 
 1751000    6259.9458   -4059.9996    6.3075473   -3440.3712    283.15106   -311.13628   0.97518058       0.8755 
 1752000    6263.6947   -4005.1734    7.7339504   -3352.3442    297.82033   -713.07773   0.99590851        0.876 
 1753000    6267.4813   -4035.6692    3.2408627   -3390.5377    296.34086   -375.52363    1.0090356       0.8765 
 1754000    6271.3492      -4043.4    6.0697959   -3409.1612    290.00602   -1553.2222   0.98353792        0.877 
 1755000    6275.1606    -4042.532    6.7829032   -3382.1121    301.76379   -631.82884   0.99690053       0.8775 
 1756000    6278.7702   -4011.5038    5.4447504    -3342.634    306.28256    -268.2676    1.0025467        0.878 
 1757000    6282.4909   -3996.4209     6.870618   -3346.4025    296.92122   -615.03521   0.97545503       0.8785 
 1758000    6286.2036   -4052.7919    3.7135753    -3375.002    311.19996   -604.25102   0.99136072        0.879 
 1759000    6289.9249   -4044.6953    7.4727656   -3364.0077    310.80221   -119.91465    0.9880244       0.8795 
 1760000    6293.6829   -4070.8128    6.4663411   -3434.3021    290.87181    411.11376   0.98001011         0.88 
 1761000    6297.4679   -4048.3826     7.704127   -3407.9365    292.11718    -917.2714   0.97652741       0.8805 
 1762000    6301.2402   -4002.2251     4.926095   -3343.2781    301.94101    -500.8692   0.98049951        0.881 
 1763000    6304.9789   -3993.8894    8.0605414   -3364.5216    286.83812     479.9685   0.97891621       0.8815 
 1764000    6308.7859   -3977.7276     9.869275   -3330.2049    294.38462    606.17469   0.97596168        0.882 
 1765000    6312.5427   -4028.7675    7.6249091   -3400.5744    286.49695   -242.75313   0.99926256       0.8825 
 1766000    6316.3845   -4090.0947    3.6930914   -3437.0509    299.78489    1258.3091   0.99191588        0.883 
 1767000    6320.1162   -4041.7868    4.7379217   -3425.0922    282.52123    473.46731   0.96766354       0.8835 
 1768000    6323.8529   -3975.4022    9.7941882   -3326.5614    295.02783   -483.98571   0.97715186        0.884 
 1769000    6327.6875   -4042.1271    7.7110149   -3374.1933    304.80422    -43.57892    1.0022744       0.8845 
 1770000     6331.494   -4000.6022    4.0849209   -3309.2403    317.29431   -941.39012   0.98429189        0.885 
 1771000    6335.3466   -4071.8447    6.5675174   -3442.9769    287.29661   -762.07393   0.99999348       0.8855 
 1772000    6339.1624   -3989.1197    4.8497738   -3332.5891    300.86065    638.11512   0.99051988        0.886 
 1773000    6343.0331   -4027.8303    6.3547042   -3394.8069    289.31331   -572.68107    1.0026438       0.8865 
 1774000    6346.9592   -4063.7146    6.0147591   -3416.0297    296.23901    225.26846   0.99249149        0.887 
 1775000    6350.9498   -3979.9501     4.429325   -3338.3158    294.17762   -187.01706    0.9899871       0.8875 
 1776000    6354.8364   -3976.1078    7.6138244    -3324.463    297.32896   -161.09658   0.96928317        0.888 
 1777000    6358.6247   -4001.2809    6.9299108   -3325.8052    308.64671   -39.978011   0.98594615       0.8885 
 1778000    6362.3933   -4021.5809    6.7165892   -3336.5321    313.16476    -192.2563    0.9730629        0.889 
 1779000    6366.1681   -3966.7859    5.5211427   -3327.6381     292.5256   -293.57715   0.97942954       0.8895 
 1780000    6370.0684   -4050.6393    4.9907811   -3380.1143    307.25634   -31.957917   0.99282959         0.89 
 1781000    6373.8625   -3934.4558      7.88446   -3282.4056    297.39116   -455.74259   0.98276127       0.8905 
 1782000    6377.5989   -3968.8246     7.114682   -3315.7684    298.21098   -454.64996   0.96862649        0.891 
 1783000    6381.5272   -3974.6209    3.6352512   -3305.3917    307.28392   -750.53201   0.99199413       0.8915 
 1784000     6385.368   -4014.2218    5.0653204    -3337.914    309.89168    1520.2829    1.0053892        0.892 
 1785000    6389.2173    -4009.597    4.2803594   -3356.3892    299.58952   -87.149523   0.99995434       0.8925 
 1786000    6393.0303   -4049.6596    5.1006036   -3380.3208      306.658     81.31162    1.0086927        0.893 
 1787000    6396.8775   -3981.7566    6.4471753   -3308.3835    307.89886     434.3806   0.98700313       0.8935 
 1788000    6400.6022   -3993.4591    5.2436473   -3364.2633    288.05921   -673.19464   0.98310523        0.894 
 1789000    6404.4109   -3997.3462    6.4582907   -3326.5818    306.68936    6.9624184   0.99374692       0.8945 
 1790000     6408.365    -3997.426    5.0039363    -3359.273    292.30512   -906.45407   0.95666407        0.895 
 1791000    6412.1644   -4054.1706    6.8550692   -3428.3528    285.75573    57.314076   0.99209567       0.8955 
 1792000    6415.9453   -4010.6445    4.4647766    -3357.094    299.66257    404.00246   0.99922064        0.896 
 1793000    6419.7683   -4024.0128    4.8964888   -3368.3843    300.42266    218.62986    1.0243236       0.8965 
 1794000    6423.6309   -4015.3925    3.9332001   -3343.9226    308.18079    206.18212   0.99568941        0.897 
 1795000    6427.4849    -4033.233    4.4024108   -3363.6162    307.10867   -1294.2202   0.99289052       0.8975 
 1796000    6431.3533   -4033.2874    5.9187263   -3364.3051     306.1157    634.33271    1.0131507        0.898 
 1797000    6435.1635   -4060.9923    2.8611258   -3435.0086    287.67622   -22.055431    1.0191502       0.8985 
 1798000    6438.9236   -3977.4357    4.7993545   -3328.5842    297.33877    828.50913    1.0245577        0.899 
 1799000    6442.7298   -3981.6952     5.956144   -3331.3844    297.47838   -201.62081   0.99975132       0.8995 
 1800000    6446.4568   -3992.6548    9.0513443   -3299.5619     315.8006   -370.30928   0.98998187          0.9 
 1801000     6449.944   -3997.6528    6.3037263   -3320.1505    309.87139   -102.88776   0.98244214       0.9005 
 1802000    6453.5408   -4027.7569    8.4397919   -3355.7894    306.32998    286.01902   0.99771032        0.901 
 1803000    6457.1057   -4020.8422    5.6342856    -3348.043    308.00918   -1233.2762   0.99150567       0.9015 
 1804000    6460.4539   -4000.2282    6.6814781   -3353.4969    295.49095    -260.2604   0.97163021        0.902 
 1805000     6463.843   -3965.4591    4.9852727   -3322.2107    294.66616   -284.73319    0.9657443       0.9025 
 1806000    6467.2773   -4014.7995    3.8340488   -3360.9985    300.06938    92.881765   0.96594712        0.903 
 1807000    6470.8165   -4027.7594    3.3560195   -3379.9113    297.54185    380.10034   0.97862111       0.9035 
 1808000    6474.2532   -4028.6868    4.1025097   -3374.4926    300.12699    948.34719   0.97561836        0.904 
 1809000     6477.752   -4000.8822     3.266292   -3334.5275    306.12718   -1384.9073   0.98505052       0.9045 
 1810000    6481.1828   -3948.4543    4.5860585   -3287.8297     302.8725   -236.91394   0.99154136        0.905 
 1811000    6484.4169   -4040.1251    5.1566775   -3358.2436    312.42266    65.881135   0.98561442       0.9055 
 1812000    6486.6766   -3994.7553    4.8915585   -3323.9057      307.452    541.41636    0.9912227        0.906 
 1813000    6488.9418   -3969.7209    4.9608109   -3278.2398    316.94495   -1035.0232   0.97235556       0.9065 
 1814000    6491.1638   -4009.5099    2.6799315   -3373.2408    292.50827   -102.91199   0.99258049        0.907 
 1815000    6493.3301   -3996.9938    3.3832933   -3379.0651     283.7164   -61.699783   0.98383658       0.9075 
 1816000    6495.4985   -4018.1852    4.1146377   -3340.5443    310.94604   -241.06479    1.0065256        0.908 
 1817000    6498.1583   -3968.6362    3.4969499    -3313.774    300.71493     555.7511   0.98857039       0.9085 
 1818000    6501.3597   -4060.8232    1.8597267   -3356.5599     324.2778    115.20686    1.0055691        0.909 
 1819000    6504.0325   -4031.0334    4.0251414   -3380.9481    298.26578   -920.36666    1.0017256       0.9095 
 1820000    6506.8751    -4005.236    3.7376577   -3346.1254    302.56519    350.63872   0.99583139         0.91 
 1821000    6509.2751   -3964.8723    4.6820589   -3313.6072    298.50714   -28.549763   0.99160867       0.9105 
 1822000    6512.7604   -4040.1889    5.3786488   -3380.5178    302.06638    318.28068    1.0118344        0.911 
 1823000     6516.374   -4036.8123    3.1904825   -3406.9265    289.32563    761.68271    1.0121029       0.9115 
 1824000    6520.0197   -3997.7029    5.9371741   -3325.2795    307.69585    437.91142    1.0081326        0.912 
 1825000     6523.824    -3982.946     4.531179   -3374.3925    278.85819    862.24283    1.0060789       0.9125 
 1826000    6527.5329   -4023.8191    6.8781403   -3331.0909    316.63554    247.14842   0.97877816        0.913 
 1827000     6530.975   -4008.0615    3.8169822   -3355.1604    299.66183    73.676433    1.0090198       0.9135 
 1828000    6534.7562   -4012.3595    4.0724361   -3315.3805    319.89327     -123.068   0.99751782        0.914 
 1829000    6537.5168   -3985.4969    4.9601403   -3344.0303    293.85511   -252.04368   0.99632081       0.9145 
 1830000    6539.9596   -3990.0144    6.9639856   -3371.6534    282.26285   -285.07336   0.99667048        0.915 
 1831000    6543.7836   -4003.8256    6.0159227   -3355.0966    296.72053    1043.4918     1.004698       0.9155 
 1832000    6547.5949   -4062.5556    3.8563073   -3398.0522     305.0001    260.29904   0.98079967        0.916 
 1833000    6551.1968   -4023.0637     4.172746    -3347.174     310.1107    697.58539   0.98765981       0.9165 
 1834000    6555.1031   -4037.9882     4.630528   -3401.7975    291.57158    -1028.166    1.0017643        0.917 
 1835000    6558.9421   -4018.4582     6.337282   -3323.6036    317.86693    193.03817    1.0090635       0.9175 
 1836000    6562.7791   -4026.5545    6.1697867   -3361.2288    304.31166   -449.37442    1.0071432        0.918 
 1837000    6566.5537   -3989.2909    6.9438364   -3367.0185    284.07796    162.40016    1.0014426       0.9185 
 1838000    6570.3433   -4025.7652    4.5522956   -3381.6636    295.25995   -5.4679478   0.99864584        0.919 
 1839000    6574.1591   -4007.7008    5.3855663   -3322.4203    313.88623    985.18654   0.99634576       0.9195 
 1840000    6577.7571   -3970.0062    4.4672401   -3328.8836    293.92384   -213.85953   0.99486964         0.92 
 1841000    6581.2455   -3983.5546    2.8533215     -3306.85    311.09609    427.81489    1.0065334       0.9205 
 1842000     6584.976   -4034.1152    5.8162994   -3385.7494    296.64498   -192.44519   0.97932346        0.921 
 1843000    6588.7513   -4013.9702    4.6057617   -3345.4359    306.51504    467.31355   0.98541556       0.9215 
 1844000    6592.6238   -3982.9011    3.1534628   -3337.3934     296.5549    95.916987    1.0047598        0.922 
 1845000    6596.5644   -4049.9153    6.4356314   -3426.8793    284.66515   -452.76007   0.99520825       0.9225 
 1846000    6600.3826   -3985.2052    4.9317942   -3333.8455    298.43553    111.49465    1.0063171        0.923 
 1847000    6604.1118   -3952.3663    6.3729935   -3305.8587    295.53012   -369.63577    0.9788182       0.9235 
 1848000    6607.6917   -3979.9453    6.5981016   -3311.4373     305.5831    10.827353   0.98139214        0.924 
 1849000    6610.5602   -3989.0757    8.4943241   -3337.1534    297.05056    191.04766   0.99017944       0.9245 
 1850000    6613.6329   -4058.1711    5.2052714   -3429.2952    287.92925    8.2491631   0.98642884        0.925 
 1851000    6617.3201   -4033.0443    7.3397213   -3369.2787    303.05128   -158.98035    0.9955315       0.9255 
 1852000    6621.0809   -4082.9797    5.2289163   -3428.0926    299.92687   -1224.2996   0.98283404        0.926 
 1853000     6624.861   -4084.8015    5.5942084   -3452.4328    289.36221   -869.86758   0.98687107       0.9265 
 1854000    6628.6397     -4045.66    5.6791036   -3370.5771    309.04283    1539.6119    0.9847647        0.927 
 1855000    6632.1321   -4003.2923    7.5637936   -3382.1062    283.29025   -1157.2077   0.96582251       0.9275 
 1856000    6634.7412   -3961.7417    6.1300873   -3293.2539    305.78987    100.94994   0.97757226        0.928 
 1857000    6637.9626   -4009.5903     7.353032   -3318.9456    315.45438    -674.7445   0.98043981       0.9285 
 1858000    6641.5209    -3995.496    5.7755599   -3335.3096    302.12103   -869.14891   0.95077098        0.929 
 1859000    6643.8398   -4036.2953    6.9717642   -3367.9384    305.34084    270.39543   0.98808175       0.9295 
 1860000    6647.5573   -4011.6702    9.7711965   -3333.6921    308.49023    777.84927   0.99125345         0.93 
 1861000    6651.2002   -4032.3563    5.9067607   -3380.9113    298.02483   -390.45957   0.99183297       0.9305 
 1862000    6654.6442   -4007.4433    6.8649592   -3300.1415    323.36978    693.36701   0.98729947        0.931 
 1863000    6657.0331    -4038.011    7.9367419    -3395.732    292.85599    -297.7996   0.97320035       0.9315 
 1864000    6660.7984   -4013.8772    4.9239301   -3363.8945    297.80346   -112.22665   0.97782513        0.932 
 1865000    6664.3943    -3984.467    6.2975695   -3344.4736    292.55753    813.50829   0.99508758       0.9325 
 1866000     6668.181   -3961.7099    6.0210616   -3303.4773    301.10564    386.06827    1.0007471        0.933 
 1867000    6671.7011   -4026.8778    4.5967097   -3357.0956    307.09535    1257.6184    0.9981916       0.9335 
 1868000    6675.2408   -3977.4037    3.5469279    -3298.606    311.74218    736.95049   0.98920192        0.934 
 1869000    6678.8384   -3992.6401    3.7620356   -3342.4848    298.41955     458.7151   0.98579184       0.9345 
 1870000    6682.6695   -3981.3224    5.1884752   -3308.8506    308.06387    1285.3549    0.9996664        0.935 
 1871000    6686.3107   -3994.2726    4.3796535   -3353.0102    294.02884   -516.73143   0.98167167       0.9355 
 1872000    6690.0055   -3963.3925    6.9924584   -3277.3364    313.50241     136.0697   0.98587078        0.936 
 1873000    6693.5102   -4029.1822    6.6980907   -3439.3926    269.19512   -715.51213    0.9822171       0.9365 
 1874000    6697.3656   -4005.6913    2.3751923   -3310.1913    319.99402    1781.1458   0.98221754        0.937 
 1875000    6701.1186   -4000.0615    7.5013449   -3347.9078    297.61584   -80.913431   0.96375387       0.9375 
 1876000    6704.9441   -4000.4835     6.154098   -3346.2573    299.19462    -740.7687   0.97875541        0.938 
 1877000     6708.749   -4052.3259    9.5805165   -3421.4209    286.84608   -601.45248   0.99049314       0.9385 
 1878000    6712.4557     -4006.56    7.4809148   -3363.3081    293.51556   -457.11369   0.97370256        0.939 
 1879000    6716.1829   -4034.2966     6.429107   -3347.7301    313.99818   -378.41726    0.9836737       0.9395 
 1880000    6719.9599   -3969.0729    8.3003519   -3298.5806    305.71333   -28.770535    1.0008004         0.94 
 1881000    6723.5756   -4047.9845    5.1683785   -3389.1999    301.75417   -329.28041   0.99540688       0.9405 
 1882000    6727.2408   -4001.5974    5.0698906    -3311.432    316.28718   -558.93768   0.98812694        0.941 
 1883000    6730.9784   -4037.2269    7.7844724   -3407.7512    287.01537   -772.64089    0.9994412       0.9415 
 1884000    6734.7605   -4042.9658    5.9024964   -3400.1673    294.03497    402.58155    1.0036152        0.942 
 1885000    6738.6685   -4018.1578    5.9645376    -3369.075    296.90758   -232.75644   0.99406903       0.9425 
 1886000    6742.5659   -4035.7354    7.1856546   -3393.7603    293.06246    635.59185    0.9989975        0.943 
 1887000    6746.1339   -3993.2417    8.4321158   -3323.6599    305.23213     17.76264   0.98238669       0.9435 
 1888000    6749.7936   -3981.5156    6.2732164   -3330.5025    297.65623   -756.22798   0.99443541        0.944 
 1889000    6753.0315   -3912.3612    5.6213988   -3256.9877    299.97022   -283.22921    1.0104409       0.9445 
 1890000    6755.7361   -3966.5946    6.5295578   -3277.9704     314.9018    859.00744   0.99253966        0.945 
 1891000    6758.1498   -4002.2219    9.7989228    -3330.544    305.56882    1128.5752   0.99487956       0.9455 
 1892000    6761.7469    -3983.313    6.5740401   -3341.8962    293.08704     841.6369   0.97533787        0.946 
 1893000    6765.3323   -3966.9666    3.7986761   -3305.2291    303.74978    1670.2927    1.0020538       0.9465 
 1894000    6768.8298     -3991.96    5.2672043    -3330.724     302.8403   -22.640201   0.98360621        0.947 
 1895000    6772.5975   -4010.5892    6.0040718   -3323.2631    314.54511    37.628577    1.0033426       0.9475 
 1896000    6776.5438   -3998.1678    6.4407704   -3330.7434     305.1555    671.99186   0.99905333        0.948 
 1897000    6780.3723   -4036.7249    3.5005009   -3363.7025    309.09732    546.53866    1.0005606       0.9485 
 1898000     6784.229   -4027.2575    5.8021926   -3355.8141    307.30573    -558.7565   0.98975383        0.949 
 1899000    6788.2619   -4005.0289    5.6783726   -3372.9196    289.20358    160.92093     1.007353       0.9495 
 1900000    6792.1425   -4001.0511    7.8076702   -3356.4877    293.97018    1098.1216    1.0001997         0.95 
 1901000    6795.6104   -4007.2749    5.3141346   -3383.0251    285.74325    811.76132    1.0055469       0.9505 
 1902000    6799.1012   -3972.5824    7.8181595   -3309.7991    302.37693    329.44108   0.99091104        0.951 
 1903000    6802.5719   -4035.3767     8.361996   -3351.7402    311.75311    613.19046    1.0107766       0.9515 
 1904000    6805.9832   -3989.8852    4.8303476   -3317.1382    308.35625    152.01492   0.98564716        0.952 
 1905000    6809.4496   -3988.6876     3.140928   -3317.3628    308.47962    961.54658    1.0124309       0.9525 
 1906000    6812.8377   -4029.2701     5.584924   -3362.1313    305.41876    286.95232   0.98824678        0.953 
 1907000    6816.3767   -4100.4198    7.3696016   -3436.3686    303.16936    1118.0559   0.98155966       0.9535 
 1908000    6819.7548   -3996.7674     6.418567     -3344.91     297.9789    -1476.847   0.98223473        0.954 
 1909000    6823.2361   -3982.2247    4.7340993   -3282.5886    320.81455   -684.18633   0.95739944       0.9545 
 1910000    6826.7151   -4009.9395    4.0844112   -3345.6176      304.811   -856.87637   0.98084788        0.955 
 1911000    6830.2646   -3982.3114    4.8145465   -3327.0975    300.26904    571.90142    1.0002579       0.9555 
 1912000    6833.6936   -4012.2392    5.6912288   -3373.2291     292.3835   -282.31497   0.98014253        0.956 
 1913000    6837.1196    -4027.344    5.7766289   -3366.9785    302.20322    797.32011   0.99806414       0.9565 
 1914000    6840.5247   -3971.4392    4.2901165   -3292.5911    311.42232    303.37611   0.97622446        0.957 
 1915000    6843.9739   -3989.1572    5.2909847   -3329.5517    302.07653   -209.93713   0.99719991       0.9575 
 1916000    6847.4179   -3977.3646    6.4942588   -3303.9854    307.87992   -1084.9828   0.97744482        0.958 
 1917000    6850.9211   -3970.2133    6.1422915   -3295.6412    308.59311   -43.192596    0.9771882       0.9585 
 1918000    6854.4162   -4005.4044    5.8115275   -3339.8752    304.57102   -790.91456   0.99550217        0.959 
 1919000    6858.0161   -4009.0005    2.5363193   -3354.7286    300.88596   -393.48131    1.0177656       0.9595 
 1920000    6861.6089   -3947.9247    4.2043675   -3255.8863    317.55149   -781.10527   0.96942629         0.96 
 1921000    6865.4828   -3995.9887    4.6965154   -3306.8065    316.00565     -828.757    1.0022286       0.9605 
 1922000     6869.291   -4014.8481    3.3785752    -3351.347    304.75793    517.87546    1.0006245        0.961 
 1923000    6873.0585   -3991.2038    5.3015416   -3356.0369    290.78913    -326.0334   0.98739295       0.9615 
 1924000    6876.8581   -3995.9468    6.7480493   -3349.3405    295.40253    919.99641   0.99540444        0.962 
 1925000    6880.6578   -3992.2076    5.8148159   -3327.2222    304.31846     389.0867    1.0061181       0.9625 
 1926000    6884.3076   -3983.0113    7.5734192   -3338.8137    293.90948     602.4143   0.99319332        0.963 
 1927000    6888.2132    -3935.296    7.9715517   -3273.2419    301.96947   -974.94417   0.96964393       0.9635 
 1928000    6892.0179    -4021.215     6.198815   -3350.2931    306.88185   -111.46773   0.98318907        0.964 
 1929000    6895.8744   -3988.5677     7.621591   -3322.8787    303.80914    1195.1797     1.000695       0.9645 
 1930000    6899.8314   -3996.0602    5.9335473   -3357.3694    292.12421    -258.4025   0.98059346        0.965 
 1931000     6903.776   -4029.6632    8.8426346   -3367.7721    301.49203   -126.65283   0.99532121       0.9655 
 1932000    6907.5291   -4038.7934     6.256403   -3395.2532      294.214     898.3994    0.9941921        0.966 
 1933000    6911.2868   -4053.1847    8.1173074   -3384.7096    304.86652    15.184148   0.99896826       0.9665 
 1934000    6915.0487   -3974.3058    6.8460004   -3321.7447    298.10647   -223.74475    0.9875024        0.967 
 1935000      6918.83   -4065.4255     6.401587   -3409.1581    300.02271    1342.6887   0.99111187       0.9675 
 1936000    6922.6071   -4028.6727     5.994393    -3400.078    287.43511   -449.74266    1.0081267        0.968 
 1937000    6926.3881   -4004.9543    5.5062833   -3340.9503    304.00784    1385.6857   0.99475497       0.9685 
 1938000    6929.9855   -4053.2977    3.4379039    -3434.521     284.0827    417.06936   0.99589035        0.969 
 1939000    6933.8021   -4021.4076    4.0999965   -3365.8742    300.74644    630.27348    1.0079473       0.9695 
 1940000      6937.72    -4002.137    5.7721523   -3360.6119    293.50725     495.0135    1.0088532         0.97 
 1941000    6941.5874   -4033.3338    3.3638423   -3380.2185    299.96994   -1116.1769   0.98556834       0.9705 
 1942000    6945.4076   -4065.2399    7.4476637   -3445.1789    282.82444    386.81432   0.99015168        0.971 
 1943000    6949.1655   -4015.5951    4.8043238   -3377.0447    292.58077    -763.5963   0.97683944       0.9715 
 1944000    6952.9973     -4047.99    6.7383618   -3399.1842    296.42249   -422.68043   0.99610723        0.972 
 1945000    6955.6335   -4038.9797    5.5558779   -3362.5072    309.74121    247.42979    1.0058913       0.9725 
 1946000    6959.0845   -4033.1465    5.6104348   -3395.5981    291.74603   -162.58266    1.0013319        0.973 
 1947000     6962.962   -4011.0352    5.6092001   -3370.2968    293.21931   -343.30874    1.0024918       0.9735 
 1948000    6966.8702   -3982.2415    3.7346025   -3357.6398     286.6349   -302.45064   0.98765468        0.974 
 1949000    6970.7861   -4009.5064     5.724778   -3375.7808    289.92834    630.14601    1.0098962       0.9745 
 1950000    6974.6653   -3990.4744    9.4069772   -3378.2838    278.28635    724.07907   0.97979718        0.975 
 1951000    6978.3942   -3983.0193    5.1144888   -3351.8034    289.05147   -829.61536   0.98742944       0.9755 
 1952000    6981.4993   -4048.0147    6.5864855   -3414.9825    289.21043   -244.19478    1.0191713        0.976 
 1953000    6985.1887   -4040.9211    6.8436477   -3360.5229    310.95908    -120.4426     0.995252       0.9765 
 1954000    6989.0799   -3959.8464    8.8600196   -3330.7915    286.32458   -10.301697    1.0018863        0.977 
 1955000    6993.0103   -4000.1899       7.9886   -3361.5749     291.1405    261.19323   0.99961606       0.9775 
 1956000    6996.8373   -3992.8774    6.5655669   -3333.3512    301.45152     770.8606   0.98787352        0.978 
 1957000    7000.6678   -4019.0174    3.8909229   -3388.4933    289.29692    28.358255   0.98117196       0.9785 
 1958000    7004.4505   -3989.3344     3.916082   -3363.9357    286.91905    745.82542   0.99294254        0.979 
 1959000     7008.312   -4017.2042    4.0417152   -3338.4443    311.49632   -518.92642    1.0117999       0.9795 
 1960000    7012.1833   -4021.0485    4.7938742   -3374.5374    296.26077   -167.05812    1.0141242         0.98 
 1961000    7016.2243   -4025.9557    4.5066119   -3367.9067    301.72009    1764.0637    1.0182024       0.9805 
 1962000    7020.0469    -4007.817    4.6433932   -3326.3502    312.46817   -133.65455   0.99690542        0.981 
 1963000    7023.7898   -4034.4843    4.3780821   -3386.8777    296.95853    16.205741   0.99619594       0.9815 
 1964000    7027.5969   -3977.9887    5.0107452   -3288.9209    315.80776   -47.884702   0.99298516        0.982 
 1965000    7031.4693   -4010.7619    5.2831046   -3340.1297    307.17087     921.2102    1.0060207       0.9825 
 1966000    7035.3815    -4018.376    3.8808127   -3373.6529    295.85684   -399.05447   0.99229015        0.983 
 1967000     7039.206   -4006.8615    2.9934419   -3349.2542    302.21473    57.573436   0.96937356       0.9835 
 1968000    7043.0546    -4029.714    10.047811   -3358.2439    305.35798   -116.66886   0.98198967        0.984 
 1969000    7046.9047   -4075.7901    3.4798259   -3416.9673    302.55136   -1041.6139   0.98051775       0.9845 
 1970000    7050.7557   -4032.2662    5.0124646   -3350.9915    312.20912   -627.63401   0.98210283        0.985 
 1971000    7054.6008   -4007.6522    4.7252116   -3390.3767    282.79533   -304.98647   0.98928333       0.9855 
 1972000    7058.3946   -4028.8247    6.7048285   -3368.9166    301.56352    748.60091   0.98917361        0.986 
 1973000    7062.1655   -4047.4221    4.7622126   -3393.8279    299.54543   -734.49944   0.97123744       0.9865 
 1974000    7065.9802   -4030.4012    4.9286074   -3372.1115    301.63635    252.25572   0.99700959        0.987 
 1975000    7069.7708   -4026.6106    5.8408934    -3345.639     311.6867    380.96417    1.0079613       0.9875 
 1976000    7073.5718   -3982.7478    6.0046665   -3345.4117    291.46597    94.052932    0.9859027        0.988 
 1977000    7077.3406   -3995.2482    3.5806098   -3354.0493    294.36843   -218.30729     1.002807       0.9885 
 1978000     7081.112   -3986.2335    4.3380639   -3340.6348    296.04999    38.049944   0.98061915        0.989 
 1979000    7085.0196   -3992.4049     2.385127   -3340.5267    299.85068    49.934138   0.99303159       0.9895 
 1980000    7089.0269   -4040.0722    5.1361855    -3390.523    297.50532   -279.12151   0.98525818         0.99 
 1981000    7092.9263    -4016.339    5.7254579   -3365.7642    297.70677    691.45816    1.0067787       0.9905 
 1982000    7096.8216   -4033.6189    6.1170249   -3376.4006     300.5931    209.05483    1.0004654        0.991 
 1983000    7100.8055   -3986.8673    3.4977263   -3316.8558    307.70854    869.01543    0.9920248       0.9915 
 1984000    7104.6407   -3916.7218    5.5327334   -3256.5652    302.21936   -662.39932   0.98169825        0.992 
 1985000    7108.4378   -3986.0451    5.2314646   -3332.5853    299.26675    445.11703   0.97636852       0.9925 
 1986000    7112.2036   -3971.2232    5.0670651   -3347.6534    285.54337   -635.00608     0.990315        0.993 
 1987000    7116.1052   -4011.7854    7.2989356    -3374.851    290.68301   -179.89331    1.0068307       0.9935 
 1988000      7120.02    -3980.998    4.6885385   -3319.4952     303.2306   -1301.0539   0.98091193        0.994 
 1989000    7123.9298   -3988.5171    2.3131825   -3330.0344    302.93295   -5.2620779    1.0097913       0.9945 
 1990000    7127.7645    -3913.495    5.8983975   -3251.3811    302.95417    572.10821   0.97462395        0.995 
 1991000     7131.607   -4043.9517    2.0250893   -3379.6108    305.77052    549.89446    1.0287626       0.9955 
 1992000    7135.5952   -3950.9431    2.5746935   -3307.4757    295.88012    154.49737   0.99508564        0.996 
 1993000    7139.3835   -3990.2961    2.9893412   -3340.1931    298.75213   -1136.7006    0.9650661       0.9965 
 1994000    7143.2671   -4037.9391    5.1261869   -3382.8313    300.07621   -934.09316    1.0019566        0.997 
 1995000    7147.1351   -4061.5743    5.0970842   -3384.9685    310.01457   -37.840945    1.0040555       0.9975 
 1996000    7150.9324   -4020.5925      3.28136   -3419.4362    276.02018   -1518.4678   0.98884462        0.998 
 1997000    7154.7066   -3992.0864    4.7909846   -3343.7582    297.10104    -328.8397    1.0193864       0.9985 
 1998000    7158.4375   -4000.6673    5.1424761   -3352.2398    296.98457    506.32744   0.99337337        0.999 
 1999000    7162.1978   -4006.9582    4.6722183   -3382.7283    286.03037    701.75392   0.99367834       0.9995 
 2000000    7165.9759   -3959.9254    7.9860117   -3330.1199    287.07461    807.54569   0.96301234            1 
Loop time of 7165.98 on 12 procs for 2000000 steps with 1090 atoms

Performance: 24.114 ns/day, 0.995 hours/ns, 279.097 timesteps/s
93.2% CPU use with 12 MPI tasks x 1 OpenMP threads

MPI task timing breakdown:
Section |  min time  |  avg time  |  max time  |%varavg| %total
---------------------------------------------------------------
Pair    | 2727.8     | 2940.1     | 3191.2     | 220.2 | 41.03
Bond    | 3.0978     | 5.5882     | 9.6872     |  76.2 |  0.08
Kspace  | 1832.8     | 2091.7     | 2300.1     | 263.4 | 29.19
Neigh   | 213.6      | 214.23     | 214.73     |   2.3 |  2.99
Comm    | 575.08     | 637.81     | 740.01     | 254.5 |  8.90
Output  | 0.18118    | 0.18544    | 0.22493    |   2.8 |  0.00
Modify  | 766.08     | 1051.9     | 1213.9     | 562.7 | 14.68
Other   |            | 224.5      |            |       |  3.13

Nlocal:        90.8333 ave         104 max          76 min
Histogram: 1 0 0 3 1 3 1 2 0 1
Nghost:        3671.00 ave        3735 max        3598 min
Histogram: 2 0 0 2 3 0 0 2 1 2
Neighs:        31428.2 ave       35955 max       26489 min
Histogram: 1 0 0 3 1 3 2 1 0 1

Total # of neighbors = 377138
Ave neighs/atom = 345.99817
Ave special neighs/atom = 2.0587156
Neighbor list builds = 84208
Dangerous builds = 0

write_data data.*.lmp
System init for write_data ...
PPPM initialization ...
  using 12-bit tables for long-range coulomb (src/lammps/src/kspace.cpp:339)
  G vector (1/distance) = 0.30684643
  grid = 20 20 20
  stencil order = 5
  estimated absolute RMS force accuracy = 0.002679522
  estimated relative force accuracy = 8.0693008e-06
  using double precision FFTW3
  3d grid and FFT values/proc = 4046 800
Neighbor list info ...
  update every 1 steps, delay 10 steps, check yes
  max neighbors/atom: 2000, page size: 100000
  master list distance cutoff = 12
  ghost atom cutoff = 12
  binsize = 6, bins = 4 4 4
  3 neighbor lists, perpetual/occasional/extra = 3 0 0
  (1) pair lj/cut/coul/long, perpetual, skip from (3)
      attributes: half, newton on
      pair build: skip
      stencil: none
      bin: none
  (2) pair lj/cut/coul/long/soft, perpetual, skip from (3)
      attributes: half, newton on
      pair build: skip
      stencil: none
      bin: none
  (3) neighbor class addition, perpetual
      attributes: half, newton on
      pair build: half/bin/newton
      stencil: half/bin/3d/newton
      bin: standard
Total wall time: 2:12:51
